nBusiness = 252;
nMeetings = 519;
nTables = 29;
nTotalSlots = 24;
nMorningSlots = 11;

requested = [|126, 9,1,
|107, 23,1,
|153, 103,3,
|86, 239,1,
|41, 240,3,
|100, 174,3,
|90, 176,3,
|112, 121,3,
|51, 102,3,
|30, 184,1,
|158, 243,3,
|120, 247,3,
|68, 181,1,
|139, 84,3,
|251, 142,3,
|178, 33,3,
|237, 163,3,
|183, 69,1,
|5, 155,3,
|92, 203,3,
|227, 54,1,
|58, 232,1,
|3, 75,1,
|176, 120,1,
|237, 181,1,
|251, 30,3,
|23, 90,1,
|86, 227,3,
|84, 158,1,
|5, 153,3,
|41, 183,3,
|174, 184,3,
|103, 112,1,
|178, 163,3,
|239, 75,3,
|232, 243,1,
|100, 121,3,
|54, 9,3,
|107, 92,1,
|3, 126,1,
|139, 240,3,
|51, 69,1,
|155, 58,3,
|203, 102,3,
|142, 68,1,
|247, 33,3,
|126, 100,3,
|247, 251,1,
|178, 232,3,
|184, 58,3,
|203, 158,1,
|137, 9,1,
|83, 130,3,
|51, 104,1,
|54, 181,3,
|68, 163,3,
|139, 30,3,
|183, 102,1,
|39, 176,1,
|92, 5,1,
|23, 229,1,
|239, 74,3,
|75, 107,1,
|65, 237,3,
|227, 33,1,
|240, 148,3,
|112, 243,3,
|153, 41,3,
|69, 32,3,
|32, 65,3,
|227, 163,3,
|148, 83,3,
|9, 29,1,
|15, 240,3,
|5, 58,3,
|74, 107,1,
|51, 244,1,
|54, 133,3,
|243, 181,3,
|39, 130,3,
|112, 69,3,
|195, 188,3,
|22, 33,3,
|178, 239,3,
|30, 137,3,
|100, 251,1,
|158, 104,3,
|237, 111,3,
|75, 68,3,
|126, 25,3,
|183, 211,3,
|229, 203,3,
|39, 148,3,
|111, 133,1,
|110, 15,3,
|66, 237,1,
|239, 83,3,
|146, 69,3,
|68, 158,3,
|200, 244,1,
|229, 75,3,
|195, 54,3,
|226, 211,3,
|25, 188,3,
|107, 5,1,
|13, 178,3,
|100, 51,1,
|18, 104,3,
|29, 196,3,
|177, 91,1,
|166, 126,3,
|9, 203,3,
|240, 224,3,
|22, 32,3,
|65, 36,3,
|22, 107,1,
|133, 5,3,
|66, 83,3,
|78, 118,3,
|65, 18,3,
|148, 51,1,
|75, 200,1,
|79, 110,3,
|218, 195,3,
|214, 126,3,
|244, 188,1,
|237, 36,3,
|68, 215,3,
|54, 241,3,
|146, 39,1,
|13, 211,1,
|25, 111,1,
|166, 196,3,
|239, 15,3,
|224, 226,3,
|91, 60,1,
|32, 177,3,
|69, 158,1,
|75, 214,1,
|148, 118,3,
|215, 224,1,
|188, 18,1,
|61, 66,3,
|211, 158,3,
|190, 212,3,
|82, 111,3,
|25, 167,3,
|39, 32,1,
|63, 237,3,
|132, 166,1,
|241, 60,3,
|13, 170,1,
|91, 189,3,
|200, 78,3,
|146, 133,1,
|226, 67,3,
|69, 54,3,
|79, 126,3,
|5, 95,3,
|88, 36,1,
|218, 110,1,
|215, 82,1,
|171, 63,1,
|226, 212,3,
|191, 198,1,
|241, 148,1,
|224, 31,1,
|78, 25,1,
|206, 133,3,
|167, 161,3,
|172, 79,1,
|146, 18,3,
|89, 237,1,
|110, 61,3,
|39, 60,1,
|188, 66,3,
|54, 189,1,
|91, 223,3,
|67, 214,1,
|190, 200,3,
|211, 95,3,
|218, 88,1,
|170, 132,1,
|113, 223,1,
|162, 172,1,
|212, 20,3,
|14, 146,1,
|67, 237,3,
|191, 89,1,
|241, 214,3,
|133, 170,1,
|18, 91,1,
|161, 215,3,
|61, 97,3,
|167, 171,3,
|60, 82,1,
|46, 206,3,
|190, 88,3,
|39, 31,3,
|189, 192,3,
|63, 35,3,
|79, 198,3,
|143, 200,1,
|132, 218,3,
|78, 226,1,
|39, 35,3,
|172, 214,3,
|82, 160,3,
|14, 248,3,
|131, 198,3,
|72, 143,3,
|212, 18,1,
|206, 20,3,
|31, 192,3,
|27, 63,1,
|119, 190,3,
|199, 71,3,
|201, 60,1,
|167, 73,3,
|113, 91,1,
|215, 55,3,
|59, 189,3,
|46, 67,3,
|162, 145,3,
|127, 204,3,
|200, 79,1,
|218, 61,3,
|132, 97,1,
|215, 42,3,
|160, 212,1,
|198, 132,3,
|91, 55,3,
|61, 141,3,
|116, 206,3,
|204, 199,3,
|238, 113,3,
|63, 167,3,
|46, 234,1,
|218, 164,3,
|18, 162,3,
|190, 145,1,
|201, 59,3,
|73, 50,3,
|131, 143,3,
|214, 217,1,
|27, 72,1,
|172, 20,3,
|119, 127,3,
|31, 248,3,
|71, 35,1,
|63, 143,2,
|201, 72,3,
|206, 77,3,
|234, 160,2,
|18, 238,2,
|35, 46,2,
|215, 50,2,
|119, 113,2,
|62, 199,3,
|214, 31,3,
|27, 73,3,
|212, 132,2,
|164, 172,3,
|162, 167,3,
|141, 248,2,
|42, 71,3,
|116, 218,2,
|217, 127,2,
|59, 2,3,
|233, 55,3,
|204, 198,2,
|20, 228,2,
|63, 21,3,
|77, 10,3,
|119, 217,3,
|248, 127,2,
|113, 164,2,
|180, 50,3,
|167, 4,2,
|199, 18,2,
|204, 19,2,
|44, 55,3,
|222, 62,2,
|225, 246,3,
|123, 31,2,
|185, 172,2,
|218, 233,3,
|114, 106,3,
|162, 73,2,
|228, 141,2,
|147, 2,3,
|201, 42,2,
|47, 99,3,
|35, 214,3,
|47, 147,2,
|218, 42,3,
|233, 114,2,
|222, 172,2,
|62, 157,3,
|77, 252,3,
|199, 217,3,
|182, 207,3,
|225, 141,3,
|204, 18,3,
|4, 21,2,
|55, 50,3,
|19, 123,3,
|135, 128,2,
|164, 180,3,
|44, 63,3,
|73, 12,2,
|10, 119,2,
|185, 99,3,
|106, 7,3,
|246, 201,3,
|127, 214,3,
|31, 162,2,
|44, 21,3,
|218, 55,3,
|225, 99,2,
|236, 7,3,
|123, 114,2,
|157, 217,3,
|207, 249,2,
|129, 252,3,
|182, 185,3,
|115, 199,2,
|62, 119,3,
|128, 8,2,
|208, 233,2,
|50, 77,2,
|246, 222,3,
|85, 186,3,
|162, 12,2,
|106, 250,3,
|19, 31,2,
|63, 40,3,
|42, 135,2,
|10, 164,3,
|249, 115,3,
|182, 114,3,
|152, 135,2,
|44, 250,3,
|42, 207,3,
|213, 164,2,
|185, 236,3,
|219, 106,3,
|48, 246,3,
|77, 99,3,
|129, 208,3,
|19, 50,3,
|8, 225,2,
|7, 210,2,
|101, 40,3,
|162, 199,3,
|217, 12,2,
|128, 64,2,
|94, 123,3,
|24, 28,3,
|222, 186,2,
|85, 62,3,
|106, 115,3,
|162, 77,2,
|152, 199,3,
|197, 19,3,
|44, 76,2,
|8, 129,3,
|62, 49,2,
|123, 159,3,
|140, 186,2,
|207, 219,3,
|42, 182,2,
|210, 85,3,
|114, 28,2,
|45, 164,3,
|52, 101,3,
|217, 236,3,
|43, 225,3,
|108, 7,3,
|99, 213,3,
|179, 173,3,
|24, 64,3,
|208, 175,3,
|37, 7,3,
|99, 164,2,
|48, 115,3,
|169, 85,3,
|19, 38,3,
|114, 49,2,
|106, 76,3,
|207, 209,3,
|219, 24,3,
|242, 94,3,
|216, 11,3,
|182, 8,2,
|87, 43,3,
|117, 45,3,
|28, 77,3,
|213, 154,3,
|42, 152,2,
|159, 136,2,
|62, 236,3,
|225, 16,2,
|64, 123,2,
|150, 205,3,
|236, 219,3,
|216, 242,3,
|8, 159,3,
|152, 235,3,
|49, 197,3,
|17, 85,2,
|108, 134,3,
|154, 99,3,
|175, 164,2,
|94, 28,3,
|62, 45,3,
|205, 43,3,
|114, 179,3,
|151, 6,3,
|11, 213,2,
|56, 7,3,
|173, 48,3,
|24, 194,3,
|150, 209,3,
|76, 52,3,
|1, 140,2,
|87, 114,3,
|149, 219,3,
|76, 26,3,
|62, 136,3,
|235, 43,3,
|242, 11,3,
|38, 16,3,
|93, 221,3,
|152, 17,2,
|8, 85,3,
|96, 216,2,
|48, 169,3,
|138, 156,2,
|24, 99,3,
|236, 34,2,
|150, 7,3,
|94, 64,3,
|56, 245,2,
|117, 209,3,
|202, 57,2,
|37, 28,3,
|17, 105,3,
|81, 93,2,
|87, 34,3,
|28, 194,2,
|24, 45,3,
|1, 205,3,
|156, 154,2,
|56, 6,3,
|98, 7,3,
|134, 94,2,
|165, 43,3,
|76, 231,3,
|235, 150,3,
|37, 96,3,
|168, 109,3,
|151, 187,2,
|80, 48,2,
|64, 11,3,
|124, 152,2,
|138, 49,3,
|236, 159,3,
|93, 202,2,
|53, 159,3,
|70, 49,2,
|7, 94,3,
|231, 26,2,
|230, 151,2,
|149, 6,3,
|221, 80,3,
|122, 24,3,
|45, 57,2,
|187, 48,2,
|245, 144,2,
|194, 125,3,
|236, 193,3,
|216, 28,3,
|37, 168,3,
|220, 209,3,
|96, 242,3,
|109, 202,2,
|28, 231,3,
|56, 81,2,
|150, 24,3,
|96, 76,2,
|194, 57,3,
|216, 236,3,
|48, 53,3,
|105, 235,3,
|209, 149,3,
|26, 70,3,
|124, 43,3,
|159, 156,3,
|93, 138,2,
|98, 37,2,
|34, 122,3,
|151, 11,3,
|17, 165,2,
|193, 221,3,
|125, 187,2,
|202, 122,3,
|230, 96,3,
|76, 17,3,
|138, 24,3,
|98, 194,3,
|80, 168,3,
|124, 48,3,
|151, 209,3,
|57, 221,3,
|43, 220,3,
|216, 144,3,
|37, 165,2,
|193, 159,2,
|];

meetingsxBusiness = [{1,427,454},
{1,270,292},
{1,24,41},
{1,280,306},
{1,20,31,61,76,106,118,160},
{1,420,456,476},
{1,315,322,354,380,385,422,443,457,473},
{1,330,353,368,396,409,437},
{1,2,39,53,74,113},
{1,275,313,340},
{1,395,421,433,466,504},
{1,312,335,357},
{1,107,132,153},
{1,188,210},
{1,75,96,135},
{1,404,434},
{1,412,436,449,505,510},
{1,109,121,143,173,193,213,241,256,281,305},
{1,282,308,337,352,366,389},
{1,187,214,248,273},
{1,274,306,319},
{1,84,115,117},
{1,3,28,62},
{1,360,383,393,424,441,453,478,491,511},
{1,91,105,133,148,169},
{1,430,474,498},
{1,216,247,262},
{1,360,375,399,416,448,452,484,489},
{1,74,110},
{1,11,27,58,86},
{1,168,200,215,250,261,286,318,337},
{1,70,71,115,138,149},
{1,17,47,66,84},
{1,442,451,503},
{1,202,207,251,257,295},
{1,116,128,161},
{1,385,448,462,485,502,519},
{1,389,434},
{1,60,81,94,131,149,176,200,207},
{1,338,355},
{1,6,32,69},
{1,230,267,293,297,339,345,373,401},
{1,379,397,418,432,459,499,517},
{1,283,311,319,344,367},
{1,376,398,417,453,479},
{1,198,224,239,257},
{1,294,296},
{1,349,387,423,439,465,480,495,514},
{1,369,390,411,468,472},
{1,244,258,279,307,332,352},
{1,10,43,55,78,108,122},
{1,377,426},
{1,471,495},
{1,22,39,56,79,103,130,158,178},
{1,222,233,271,283,307,320},
{1,422,445,456,490},
{1,447,479,493,516},
{1,23,44,51,76},
{1,223,243,270},
{1,137,152,176,197,219},
{1,144,175,195,228,234},
{1,260,284,300,329,362,369,403,417,431},
{1,150,164,202,216,238,252,274,311,338},
{1,358,383,405,444,466},
{1,65,71,116,121},
{1,97,119,144,177},
{1,157,180,189,224},
{1,14,46,57,90,100,129},
{1,19,43,70,82,99,139,158},
{1,472,498},
{1,218,251,267},
{1,212,247,253},
{1,220,244,262,290,312},
{1,63,77},
{1,24,36,64,90,102,123,140},
{1,367,391,426,430,460,492,510},
{1,254,275,301,332,350,364,399},
{1,120,155,169,206},
{1,124,159,172,203,227},
{1,465,477,513},
{1,450,490},
{1,147,163,197,209},
{1,54,73,98,119},
{1,15,30},
{1,334,362,374,388,412,437},
{1,5,29},
{1,397,428,451},
{1,161,183,199},
{1,174,190},
{1,8,28},
{1,111,137,154,179,193,221,233},
{1,21,40,61},
{1,435,450,470,501},
{1,359,394,416,444,458,473},
{1,160,182},
{1,438,462,487,492,509},
{1,195,229},
{1,457,502,512},
{1,294,314,321,350,381,386,414,441},
{1,7,38,48,87,108},
{1,355,377},
{1,10,45,59},
{1,4,34},
{1,55,88,109},
{1,449,496},
{1,289,315,336,348,363,391},
{1,3,40,64,77,106,117},
{1,380,413},
{1,463,488},
{1,96,124,162,175},
{1,89,95,133,147},
{1,9,34,68,82},
{1,185,221,237,259,278},
{1,289,298,323,342,375,390,419,428},
{1,328,341,363,387},
{1,235,268},
{1,398,446},
{1,120,141},
{1,217,249,259,276,313,329},
{1,13,25},
{1,9,38},
{1,478,503,508},
{1,286,308,323,359,370,405},
{1,467,499,514},
{1,482,507},
{1,2,41,48,91,112,126,159},
{1,226,249,269,277,317},
{1,309,330,358},
{1,326,351,368},
{1,54,81},
{1,211,245},
{1,151,184,205,229,232,263},
{1,79,95,118,156,170,192},
{1,413,458},
{1,309,339,343},
{1,402,431},
{1,53,86},
{1,440,468,501,511},
{1,15,42,58},
{1,371,427},
{1,234,266,291,304},
{1,16,46},
{1,204,212,245,252},
{1,481,518},
{1,225,242},
{1,99,131,156,173,188},
{1,292,296},
{1,67,73,94,122,141,167},
{1,429,476,497},
{1,406,425,443,461,491},
{1,420,464,475,504,515},
{1,343,365,401,410,436,467},
{1,4,31,69},
{1,400,414,455},
{1,20,44},
{1,440,455,500},
{1,300,324},
{1,12,30,52,88,100,139,145},
{1,370,402,409,469,471,500,520},
{1,209,231,255},
{1,171,194},
{1,186,225,241,265,290,318,335,356,364},
{1,18,35,57,72},
{1,240,264,278,310,340,346,376,386,415},
{1,459,505,519},
{1,112,134,151},
{1,148,171,196,220,238,265,280},
{1,463,485,513},
{1,388,439},
{1,153,184,192},
{1,164,196},
{1,172,186,208,248,264,287,299},
{1,382,423},
{1,7,33},
{1,384,415},
{1,8,25,60},
{1,111,138},
{1,17,35,50,85,107},
{1,382,419},
{1,279,310},
{1,14,26,56,80},
{1,303,327,342,373,396},
{1,19,32,59,92},
{1,11,33,51},
{1,287,314,327,347},
{1,334,361,371},
{1,464,480,507},
{1,83,105,127,143,177},
{1,154,178,201,223},
{1,146,181,199,217,242},
{1,166,190},
{1,201,215},
{1,483,506,520},
{1,424,452,482,493,512},
{1,83,103,125},
{1,110,134},
{1,366,411},
{1,166,203,211,232,272},
{1,218,236,260,281,302,328,356,365},
{1,101,123,155,181,204,227},
{1,219,243,253,293,316},
{1,447,470,488,508},
{1,21,45,52,93,113},
{1,226,236,272,282,305},
{1,406,418,454},
{1,170,198,214,235,254},
{1,303,325,345,372,392},
{1,331,351,384},
{1,392,425,446,486,497,515},
{1,354,374},
{1,92,104,132,145,182},
{1,146,165,187,213,231,263},
{1,346,381,400,421},
{1,126,140,180,191,208,246,261,295,317},
{1,129,142,163,194,222,230,258},
{1,395,408,438,484,494,518},
{1,246,269,276,302,324,357,378},
{1,125,162,183,205,228,240,268,288,297,320},
{1,348,372,393,407,429},
{1,486,517},
{1,435,477,506,516},
{1,284,299,333,361},
{1,179,185},
{1,114,136,142,168},
{1,285,304,321,353,379,404},
{1,104,136,157,165,206},
{1,22,29,66,72},
{1,273,291},
{1,62,93,102},
{1,475,509},
{1,460,474,489},
{1,23,37,50},
{1,271,288,298,331},
{1,239,255},
{1,410,432,461,496},
{1,322,347,378,403,407,442,469,483,494},
{1,18,26,65,89,97,128,150,174,189},
{1,237,256},
{1,5,36,63,85,98,135},
{1,6,42,67,75,114},
{1,130,152,167,191},
{1,394,408,433,487},
{1,12,37,68,80},
{1,78,101,127},
{1,445,481},
{1,285,316,333,349},
{1,13,47,49},
{1,210,250,266,277},
{1,325,341},
{1,336,344},
{1,16,27,49,87},
{1,301,326}];

nMeetingsBusiness = [2,2,2,2,7,3,9,6,5,3,5,3,3,2,3,2,5,10,6,4,3,3,3,9,5,3,3,8,2,4,8,5,4,3,5,3,6,2,8,2,3,8,7,5,5,4,2,8,5,6,6,2,2,8,6,4,4,4,3,5,5,9,9,5,4,4,4,6,7,2,3,3,5,2,7,7,7,4,5,3,2,4,4,2,6,2,3,3,2,2,7,3,4,6,2,5,2,3,8,5,2,3,2,3,2,6,6,2,2,4,4,4,5,8,4,2,2,2,6,2,2,3,6,3,2,7,5,3,3,2,2,6,6,2,3,2,2,4,3,2,4,2,4,2,2,5,2,6,3,5,5,6,3,3,2,3,2,7,7,3,2,9,4,9,3,3,7,3,2,3,2,7,2,2,2,3,2,5,2,2,4,5,4,3,4,3,3,5,4,5,2,2,3,5,3,2,2,5,8,6,5,4,5,5,3,5,5,3,6,2,5,6,4,9,7,6,7,10,5,2,4,4,2,4,6,5,4,2,3,2,3,3,4,2,4,9,9,2,6,5,4,4,4,3,2,4,3,4,2,2,4,2];

forbidden = [{0,1,2,3,4,5,6,7,8,9,10,11,12,13,14,15,16,17,18,20,22,23,24},
{0,2},
{0},
{0,3,20},
{0,15,23},
{0,1,2,3,4,5,6,7,8,9,10,11,12,13,14,15,16,17,20,23,24},
{0,9,13,24},
{0,22},
{0,6,18},
{0,19},
{0,1,2,3,4,5,6,7,8,9,10,11,12,13,14,15,16,17,22},
{0,10},
{0,1,15,21},
{0,1},
{0,1,19,21},
{0,1,2,3,4,5,6,7,8,9,10,11,12,13,14,15,16,17,19,21,22,23,24},
{0,1,2,3,4,5,6,7,8,9,10,11,12,13,14,15,16,17,22},
{0,16},
{0,4,24},
{0,4,7},
{0,8},
{0,8,12},
{0,6,23},
{0,9,10},
{0},
{0,1,2,3,4,5,6,7,8,9,10,11,12,13,14,15,16,17,18,21,24},
{0,15},
{0,7,9},
{0},
{0,5,22},
{0},
{0,19,21},
{0,8,11,18},
{0,1,2,3,4,5,6,7,8,9,10,11,12,13,14,15,16,17,18,19,22},
{0,6,20},
{0,14,19},
{0,1,2,3,4,5,6,7,8,9,10,11,12,13,15,19},
{0,1,2,3,4,5,6,7,8,9,10,11,12,13,14,15,16,17,19,21,22,23,24},
{0},
{0,20},
{0,5,10,11,19},
{0,2},
{0,1,2,3,4,5,6,7,8,9,10,11,12,13,14,15,22},
{0,9,20},
{0,1,2,3,4,5,6,7,8,9,10,11,12,13,14,15,20},
{0},
{0,4,6,18},
{0,1,2,3,4,5,6,7,8,9,17},
{0,1,2,3,4,5,6,7,8,9,10,11,12,13,14,15,20},
{0},
{0,12,15},
{0,1,2,3,4,5,6,7,8,9,10,11,12,13,14,15,16,18,20,21,22,23,24},
{0,8,11,18},
{0,18},
{0},
{0,1,2,3,4,5,6,7,8,9,10,11,12,13,14,15,16,17,18,22},
{0,1,2,3,4,5,6,7,8,9,10,11,12,13,14,15,16,17,21},
{0,12,23},
{0},
{0,17},
{0,16},
{0,22},
{0,21},
{0,1,2,3,4,5,6,7,8,9,10,11,12,13,14,19,24},
{0,1,11,17},
{0,11},
{0,12},
{0,9},
{0,11,17},
{0},
{0,2,3,5,18},
{0,17,22},
{0,2,18},
{0,11,12,24},
{0,22,23},
{0,1,2,3,4,5,6,7,8,9,10,11,12,13,14,15,22},
{0,6,7,8},
{0,21},
{0,12,15},
{0,1,2,3,4,5,6,7,8,9,10,11,12,13,14,15,16,17,18,19,20,23},
{0,1,2,3,4,5,6,7,8,9,10,11,12,13,14,15,16,17,18,19,20,22,24},
{0,4,13},
{0},
{0,13,18},
{0},
{0,18},
{0,1,2,3,4,5,6,7,8,9,10,11,12,13,14,15,16,19,22,23,24},
{0,5,18},
{0,1,19,24},
{0,9,11,22},
{0},
{0,16},
{0,3},
{0,1,2,3,4,5,6,7,8,9,10,11,17,23,24},
{0},
{0},
{0,5,13,17},
{0,1,2,3,4,5,6,7,8,9,10,11,12,13,14,15,16,17,18,19,22},
{0,2,9,22},
{0,7,17},
{0,4,8,15},
{0,17,18},
{0,7},
{0,15},
{0,1,2,3,4,5,6,7,8,9,10,11,12,13,14,15,16,17,18,19,20,22,24},
{0,1,20,21},
{0,16},
{0,1,2,3,4,5,6,7,8,9,10,11,12,13,14,15,16,18,20,21,22,23,24},
{0,1,2,3,4,5,6,7,8,9,10,11,12,13,14,15,16,17,18,19,20,22,24},
{0,22},
{0,2,8,12},
{0,22},
{0,14},
{0},
{0,9,21},
{0,20},
{0,1,2,3,4,5,6,7,8,9,10,11,12,13,14,15,16,17,19,21,22,23,24},
{0,12,16,24},
{0},
{0,15,17,19},
{0,7,24},
{0,7,19},
{0,1,3,23},
{0,1,2,3,4,5,6,7,8,9,10,11,12,13,14,15,16,17,18,19,22},
{0,1,2,3,4,5,6,7,8,9,10,11,12,13,14,15,16,17,18,19,20,21,23},
{0,11,15},
{0,3},
{0},
{0,4},
{0,1,12},
{0,8,24},
{0,6,13},
{0},
{0,1,2,3,4,5,6,7,8,9,10,11,12,13,14,15,16,17,18,20,22,23,24},
{0,24},
{0,1,2,3,4,5,6,7,8,9,10,11,12,13,14,15,16,17,19,21,22,23,24},
{0},
{0,1,2,3,4,5,6,7,8,9,10,11,12,13,14,15,16,17,18,22},
{0},
{0,1,2,3,4,5,6,7,8,9,10,11,12,13,14,15,16,18,20,21,22,23,24},
{0,16,24},
{0,3},
{0,3,16,21},
{0,1,2,3,4,5,6,7,8,9,10,11,12,13,14,15,16,17,18,19,20,21,23},
{0,1,2},
{0,4,21},
{0,1,21,23},
{0,15,21},
{0,1,2,3,4,5,6,7,8,9,10,11,12,13,14,15,16,17,18,21,24},
{0,1,2,3,4,5,6,7,8,9,10,11,12,13,14,15,16,17,22,24},
{0,1,2,3,4,5,6,7,8,9,10,11,12,13,14,15,20},
{0,3},
{0,8,13,17,23},
{0,1,2,3,4,5,6,7,8,9,10,11,12,13,14,15,16,17,20,23,24},
{0,5},
{0,1,2,3,4,5,6,7,8,9,10,11,12,13,14,15,16,17,18,19,22},
{0,9,11,18,22},
{0,23},
{0,1,2,3,4,5,6,7,8,9,10,11,12,13,20},
{0,13,19},
{0,10,16,17,22},
{0,3,7,22,23},
{0,12,23},
{0,7,10},
{0,1,2,3,4,5,6,7,8,9,10,11,12,13,14,15,16,17,18,19,22},
{0,21},
{0,18},
{0,1,2,3,4,5,6,7,8,9,10,11,12,13,14,15,16,17,18,19,20,23},
{0,1,2,3,4,5,6,7,8,9,10,11,12,13,14,15,16,17,19,21,22,23,24},
{0,15,17},
{0},
{0},
{0,1,2,3,4,5,6,7,8,9,10,11,12,13,14,15,16,18,20,21,22,23,24},
{0,9,12,15,17,18},
{0,1,2,3,4,5,6,7,8,9,10,11,12,13,14,15,16,18,20,21,22,23,24},
{0,8,14,23},
{0,18},
{0,10,22},
{0,1,2,3,4,5,6,7,8,9,10,11,12,13,14,15,16,18,20,21,22,23,24},
{0,3,6},
{0,12},
{0,1,4,5,9},
{0,8,11,14,19},
{0},
{0},
{0},
{0,1,2,3,4,5,6,7,8,9,10,11,12,13,14,15,16,17,18,19,20,23},
{0,1,3,10,17},
{0,22},
{0},
{0,16},
{0,8,13},
{0,16,18},
{0,1,2,3,4,5,6,7,8,9,10,11,12,13,14,15,20},
{0,3,8,19},
{0,1,4},
{0,1,2,3,4,5,6,7,8,9,10,11,12,13,14,15,16,18,20,21,22,23,24},
{0,21},
{0,2,9},
{0},
{0,24},
{0,1,2,3,4,5,6,7,8,9,10,11,12,13,14,15,16,17,21},
{0,13,15,21},
{0,5},
{0,1,2,3,4,5,6,7,8,9,10,11,12,13,14,15,16,17,20,23,24},
{0,20,21},
{0,2,10},
{0,3,13},
{0,1,2,3,4,5,6,7,8,9,10,11,12,13,14,15,21},
{0,3,24},
{0,15,21,24},
{0,2},
{0,3},
{0},
{0,21},
{0,1,2,3,4,5,6,7,8,9,10,11,12,13,14,15,16,21},
{0,23},
{0},
{0,10,22,23,24},
{0,1,2,3,4,5,6,7,8,9,10,11,12,13,14,15,16,17,18,19,20,21,23},
{0,1,2,3,4,5,6,7,8,9,10,11,12,13,14,15,16,17,21},
{0},
{0,16,23},
{0,22},
{0,7,22},
{0,19},
{0,16},
{0,2,8,22},
{0},
{0,1,2,3,4,5,6,7,8,9,10,11,12,13,14,15,16,17,18,19,20,21,23},
{0,7,10},
{0,4,5,6,10,20,23},
{0,5,21},
{0,9},
{0,1,2,3,4,5,6,7,8,9,10,11,12,13,14,15,16,17,18,22},
{0,2,7,13},
{0},
{0,5,24},
{0,15},
{0,10},
{0,14,17,22},
{0,1,2,3,4,5,6,7,8,9,10,11,12,13,14,15,16,17,21},
{0,20},
{0,12,19},
{0,1,2,3,4,5,6,7,8,9,10,11,12,13,14,15,16,17,18,19,21,23,24},
{0,4},
{0},
{0,21},
{0,4,12,18},
{0,8,20},
{0,9,13},
{0,5,10,24}];

fixed = [0,0,0,0,0,0,0,0,0,0,0,0,0,0,0,0,0,0,0,1,0,0,0,0,0,0,0,0,2,0,0,0,0,0,0,0,0,0,0,0,0,0,0,0,0,0,0,0,0,0,0,0,0,0,0,0,0,0,0,0,0,0,0,0,0,0,0,3,0,0,0,0,0,0,0,0,0,0,0,0,0,0,4,0,0,0,4,0,4,0,0,0,0,0,5,0,0,0,0,0,0,0,0,0,0,0,5,0,0,0,0,0,0,0,0,0,0,0,0,0,0,0,0,0,0,0,0,0,0,0,0,0,0,0,0,0,0,0,0,0,0,0,0,0,0,0,0,0,0,0,0,0,0,0,0,0,0,0,0,7,0,0,8,0,0,0,0,0,0,0,0,0,0,8,0,0,0,8,0,0,0,0,0,0,0,0,0,0,0,0,0,0,0,0,0,0,0,0,0,0,0,0,0,0,0,0,0,0,0,0,0,0,0,0,0,0,0,0,0,0,0,0,0,0,0,0,0,0,0,0,0,0,0,0,0,0,0,0,0,0,0,0,0,0,0,0,0,0,0,0,0,0,12,0,0,0,0,0,0,0,0,0,0,0,0,0,0,0,0,0,0,0,0,0,0,0,0,0,0,0,0,0,0,13,0,0,0,0,0,0,0,0,0,0,0,0,0,0,0,0,0,0,14,0,0,0,0,0,0,0,0,0,0,0,14,0,0,0,0,0,0,0,0,0,0,0,0,0,0,0,0,0,0,0,0,0,0,0,0,0,0,0,0,0,0,0,0,0,0,0,0,0,16,0,0,0,0,0,0,0,0,0,0,0,0,17,0,0,0,0,0,0,0,0,0,0,0,0,0,0,0,0,0,0,18,0,0,0,0,0,0,0,0,18,0,0,18,0,0,0,0,0,0,0,0,0,0,0,0,0,0,0,0,0,0,0,0,0,0,0,0,0,0,0,0,0,0,0,0,0,0,0,0,0,0,0,0,0,0,0,0,0,0,0,0,0,0,0,0,0,0,0,0,0,0,0,0,0,0,0,0,0,0,21,0,0,21,0,0,0,0,0,0,0,0,0,0,0,0,0,22,0,0,0,0,0,0,0,0,0,0,0,0,0,0,0,0,0,0,0,0,0,0,0,0,0,0,0,0,0,0,0,0,0,0,0,0,0,0];

precedences = [{},
{},
{},
{},
{},
{},
{},
{},
{},
{},
{},
{},
{},
{},
{},
{},
{},
{},
{},
{},
{},
{},
{},
{1,5,14,16,19,22,23},
{1,4,6,7,8,16,17,19,20},
{4,6,9,10,12,14,16,18,19},
{2,3,7,14,15,20},
{2,4,6,7,8,12,18,21},
{1,4,5,7,20,21},
{9,12,14,15,20},
{13,18,20,23},
{1,2,3,4,13,14,16,17,18,21,23},
{2,3,5,10,11,13,16,17,18,20},
{3,6,7,8,13,14,15,17,18,19,21,22,23},
{1,2,3,5,6,7,14,16,23},
{5,8,9,11,15,19,21,22},
{3,7,15,22,23},
{2,3,10,11,14,18,20,21},
{5,7,10,12,16,19,20,23},
{1,4,12,13,14,21,23},
{3,6,7,10,12,13,14,16,20,22},
{7,9,10,12,13,14,18,20,22,23},
{5,6,11,13,14,18,19,22,23},
{3,4,5,10,11,12,13,16,20,23},
{1,3,4,5,9,17,18,22,23},
{6,11,13,15,19,20,22},
{8,10,15,16,17,19,21,23,25,26,27,30,34,35,39,40,41},
{1,4,5,6,7,12,13,16,18,20,21,22,23,24,25,27,28,29,32,35,38,46},
{2,4,5,7,9,17,19,21,22,27,28,31,32,33,35,40,41,43},
{1,2,5,6,8,10,12,13,17,19,20,21,26,28,30,33,34,38,42},
{2,6,7,10,13,16,20,22,24,26,28,29,31,32,33,34,35,40,41,42,43,44,46},
{1,2,8,9,11,12,13,14,17,20,22,25,26,29,32,34,35,40,41},
{1,4,5,6,7,12,16,17,18,21,22,24,28,29,34,35,44,45,46},
{1,4,5,7,11,13,14,20,23,26,27,30,35,36,39,41,43,46},
{1,2,3,4,5,6,9,10,13,15,17,18,20,22,24,26,28,32,34,36,37,38,40,45},
{1,2,3,4,5,6,7,12,13,15,16,20,21,23,29,33,34,36,38,40,43,45},
{7,9,19,21,22,23,27,29,32,34,35,40,44,45,46},
{1,2,4,6,9,10,11,13,14,15,17,19,20,24,31,33,34,37,41,42,44},
{1,4,6,8,9,10,11,13,17,18,21,22,24,28,29,30,33,36,37,38,39,40,43,45},
{1,3,4,6,9,14,17,18,19,20,22,29,30,32,33,34,37,39,41},
{6,7,8,13,16,20,21,23,24,26,29,31,33,36,39,41,42,45,46},
{1,4,10,11,16,18,19,21,22,23,25,28,29,31,33,34,36,41,43,46},
{1,2,5,6,7,9,13,20,21,22,24,27,28,30,36,41,46},
{4,5,7,11,12,13,14,15,17,18,20,26,28,29,30,32,37,39,40,42,43,44},
{3,11,12,14,17,19,20,21,26,29,34,38,39,40,42,43,45,46},
{1,2,3,8,10,12,13,21,22,25,32,35,36,40,41,42,46},
{3,4,6,14,15,17,19,27,28,31,34,39,45},
{2,3,5,7,9,10,11,13,19,23,24,26,28,29,38,41,45},
{5,6,7,9,10,20,22,23,25,26,36,37,39,40,45,46},
{4,5,6,7,9,10,14,19,20,23,25,26,28,29,31,32,33,38,41,45,46,47,49,52,54,57,59,61,62,63,64,68,69},
{2,3,8,9,10,13,15,16,17,18,22,23,28,31,36,41,42,47,49,50,53,54,58,59,60,63,66,67},
{4,13,15,18,19,21,24,26,28,29,38,42,44,46,48,50,52,58,60,62,66,67,69},
{1,2,4,6,7,8,11,12,14,15,18,19,21,24,26,29,36,38,39,41,42,43,44,45,47,48,52,53,55,58,59,61,64,67,69},
{9,10,11,12,14,16,19,20,22,23,24,25,32,33,35,36,37,50,52,53,54,60,63,64,67,68},
{6,7,11,13,15,20,22,25,26,27,28,29,31,32,33,37,38,40,41,46,47,48,49,51,52,55,60,61,64,66,67},
{3,5,6,8,12,15,22,24,26,28,30,31,42,43,45,46,47,53,56,63,67},
{8,13,14,15,16,19,20,21,24,28,29,30,37,39,42,44,46,48,54,55,56,57,60,64,66,67,68},
{5,7,9,13,14,15,21,25,26,28,31,34,38,39,41,46,50,51,52,54,55,57,63,64,67,68},
{1,3,4,5,7,9,10,11,13,19,23,26,27,28,30,32,34,36,37,38,40,41,46,49,50,58,61,63,64,65,67,68,69},
{3,4,6,14,16,19,27,28,29,37,41,44,46,48,50,51,52,53,54,56,58,60,67},
{2,4,18,19,20,27,29,31,32,33,34,36,37,39,40,41,42,47,48,52,53,54,55,56,58,61,63,64,65,66,69},
{2,4,5,7,8,10,13,14,15,16,19,20,21,22,24,25,28,29,33,34,35,36,38,44,47,59,60,67},
{3,4,6,8,9,11,12,16,17,20,21,22,24,27,28,30,36,38,39,42,45,50,52,54,56,61,64,66,67,68,69},
{2,7,9,10,16,18,22,23,26,29,33,36,37,38,42,45,51,52,55,57,60,63,65},
{1,3,4,9,13,16,18,20,25,29,31,32,33,36,37,42,44,46,48,49,52,53,59,61,64,66,67,69},
{1,2,4,5,6,8,9,12,16,17,18,19,28,31,33,34,35,36,37,41,42,50,51,52,57,58,60,62,64,67,69},
{1,3,6,8,10,11,12,14,16,20,25,28,29,30,38,43,46,53,54,63,68},
{3,7,8,10,12,14,15,29,32,33,34,35,36,40,44,47,49,50,51,53,56,60,61,63,64,67},
{2,4,7,8,10,12,14,16,17,20,22,23,25,28,30,31,32,34,35,40,42,44,45,46,48,50,52,53,59,61,65,66,67,69},
{2,5,8,12,18,22,25,26,27,34,36,37,38,43,44,46,47,48,50,52,53,54,55,57,58,60,64,66,67,69},
{1,4,5,10,13,14,16,17,23,24,26,29,30,33,35,36,40,42,43,44,46,49,50,51,52,53,54,55,56,59,61,63,64,66,68},
{3,4,6,7,12,15,28,31,33,35,36,37,40,45,46,48,51,54,57,60,61,69},
{3,5,9,12,13,15,16,17,18,29,30,31,32,38,40,42,52,53,55,56,62,63,66,69,71,73,74,76,78,79,81,85,88,90},
{1,2,4,6,17,18,25,26,27,33,34,37,38,44,45,48,50,51,53,55,56,58,59,60,61,63,65,67,68,70,76,78,79,80,81,82,86},
{2,3,4,9,12,20,23,26,27,28,30,35,38,43,44,45,46,51,52,53,55,57,64,65,66,68,69,70,71,78,84,86,89,91,92},
{4,5,7,8,9,10,17,18,19,20,22,25,27,29,30,31,35,41,45,46,48,49,55,59,60,62,64,70,72,76,82,86,87,89,91,92},
{1,3,5,7,11,14,16,18,19,20,24,27,29,32,43,45,47,48,50,54,62,68,70,71,72,73,79,82,91,92},
{5,8,9,12,14,17,20,21,26,27,29,30,32,33,35,37,38,41,47,49,53,54,55,56,60,61,63,64,67,71,73,75,79,83,86,87,90},
{2,6,9,10,11,12,13,14,16,18,19,20,22,24,31,33,37,43,44,46,53,57,59,61,63,64,67,70,75,79,82,83,85},
{2,7,8,13,18,22,24,27,28,29,30,31,33,37,40,42,45,46,47,55,57,59,60,64,65,67,71,73,74,75,76,79,81,83,86,89,90},
{3,5,7,14,17,18,24,26,28,31,32,33,34,36,39,40,41,42,44,46,47,55,58,59,61,63,66,67,70,74,77,81,82,83,84,91},
{3,4,5,6,7,10,12,13,14,15,16,24,25,28,29,30,31,35,36,37,38,39,41,43,44,45,49,50,51,53,58,62,63,64,69,71,72,78,81,85,89,90,91},
{1,4,12,14,17,20,23,25,26,27,29,34,36,39,48,49,50,56,57,61,62,64,65,66,72,73,75,77,78,80,81,85,89,91,92},
{1,3,10,12,14,26,28,29,32,34,35,39,40,41,42,44,45,51,52,54,55,56,57,59,60,61,63,68,69,74,75,76,77,78,79,80,81,84,86,90},
{2,6,9,12,13,17,19,26,31,34,35,38,40,44,49,53,54,61,62,63,65,67,73,75,76,78,80,84,85,87,90},
{1,3,4,7,14,17,21,25,26,28,29,33,39,40,41,48,49,50,51,53,56,59,61,66,68,70,71,74,78,80,81,82,85,86,92},
{1,3,9,17,18,19,22,23,24,25,27,29,30,31,32,35,37,38,39,40,41,48,50,54,57,59,61,64,65,67,70,73,77,78,79,81,82,83,87,88,90},
{2,3,6,7,8,12,13,15,17,19,21,23,24,25,29,32,33,34,39,43,50,51,53,56,61,64,67,69,70,71,72,75,76,77,78,84,85,86,87,91},
{2,3,7,10,13,14,18,22,24,25,30,31,35,36,39,40,41,43,44,48,50,52,54,55,56,58,59,66,68,70,71,72,73,76,78,79,82,83,86,88,89,91},
{2,3,4,7,9,10,11,15,16,23,25,27,29,30,35,37,38,39,45,47,48,52,53,54,56,58,59,60,62,64,68,69,72,73,74,76,79,80,85,89,92},
{1,2,7,8,11,18,20,22,24,25,29,30,41,42,44,45,47,51,52,53,54,59,61,62,63,69,70,74,75,76,79,82,83,90,91},
{2,3,4,6,9,14,15,19,22,23,25,27,29,30,31,37,41,43,47,51,52,53,56,68,69,70,75,77,79,80,81,82,87,90,91},
{5,7,10,12,16,18,21,22,26,27,30,32,33,36,37,38,40,41,42,43,50,51,53,54,55,60,62,63,71,72,73,75,76,78,83,84,86,92},
{2,3,4,5,6,9,10,12,14,15,16,17,18,19,20,21,22,24,28,29,31,32,33,36,37,40,41,42,44,52,54,55,60,61,62,68,69,70,75,77,79,81,82,83,86,91},
{3,6,12,19,20,22,23,25,27,28,30,33,34,35,37,38,39,43,49,50,51,52,55,59,61,62,63,66,69,70,71,74,75,81,84,86,87,89,90,91},
{10,18,21,24,28,29,30,32,33,35,39,41,43,46,47,50,53,55,62,63,67,68,70,72,73,74,75,76,77,78,81,85,90,91,92,93,95,98,103,105,108,112,113,114,115},
{3,6,7,9,18,19,20,21,22,26,32,34,39,40,42,48,50,57,58,60,64,66,71,78,79,85,87,90,91,93,95,101,103,104,106,111},
{6,8,9,10,11,14,15,17,19,21,22,25,26,27,28,30,36,39,41,44,45,47,54,55,56,58,61,65,69,70,71,72,73,79,81,87,89,90,91,98,103,106,107,109,112,113,114,115},
{1,2,3,6,12,13,15,19,22,28,30,31,34,37,42,47,49,50,51,55,56,59,60,63,64,69,72,74,75,76,77,78,79,82,83,92,94,95,96,97,103,109,112,114,115},
{2,3,7,11,13,14,18,21,33,34,35,37,38,39,40,41,43,46,47,53,54,56,58,64,65,68,69,73,77,79,81,84,85,86,90,91,92,95,98,100,105,109,111,113,114,115},
{2,3,4,5,6,12,14,15,16,20,22,24,26,27,29,34,36,40,41,44,48,49,52,56,57,58,60,61,62,65,67,68,73,75,78,82,84,86,89,90,93,94,97,102,104,107,111,112},
{4,6,7,8,9,11,12,13,17,21,32,34,37,38,44,46,47,48,49,52,53,54,56,60,64,69,70,71,72,73,74,78,79,83,86,91,96,97,98,102,105,106,108,109,110,111},
{1,2,5,9,11,17,19,20,21,23,24,27,30,32,39,40,41,43,47,48,49,51,54,59,60,62,64,68,70,71,72,74,78,79,80,83,87,91,92,96,101,105,106,107,108,110,111,113},
{3,7,10,12,17,18,21,22,23,24,28,30,32,33,36,38,40,42,43,44,45,50,55,56,57,58,62,65,66,68,70,72,73,75,76,77,84,85,88,92,94,96,99,104,106,107},
{3,5,7,12,17,18,22,25,29,31,37,39,40,42,44,45,49,50,52,56,61,63,66,68,70,71,75,77,79,80,81,82,83,85,86,89,95,96,100,106,107,110,111,112,115},
{5,7,12,13,17,21,22,23,24,27,28,31,32,36,51,54,55,56,62,64,67,70,71,73,74,75,77,80,81,82,83,86,87,89,91,93,94,95,97,101,109,110,113,114},
{3,6,10,11,12,13,14,15,18,20,21,24,26,30,33,34,36,38,41,42,43,45,49,50,51,53,54,55,62,64,71,74,77,79,84,93,95,102,105,108,109,110,111,112,114},
{2,3,5,8,9,17,19,21,22,26,27,32,33,36,42,43,45,46,47,49,51,53,54,55,56,57,59,60,63,65,67,69,75,78,82,83,85,88,91,95,96,98,99,100,104,106,110,112,115},
{1,4,5,7,11,12,18,19,22,24,26,27,29,30,33,40,41,43,44,48,49,52,54,55,56,61,64,67,69,72,73,74,75,78,85,89,94,98,102,103,108,113,114},
{1,3,4,5,8,12,13,14,16,19,22,23,30,32,33,35,36,39,41,42,44,45,49,51,52,53,55,60,67,70,71,77,82,83,84,90,91,92,95,97,99,100,109,112},
{1,11,14,16,18,19,21,22,29,31,38,41,44,47,52,53,55,58,60,68,72,75,76,77,78,83,90,92,94,96,97,102,103,107,108,110,111,113},
{1,4,7,8,11,16,17,18,19,21,24,25,27,28,31,32,34,35,38,44,47,48,49,51,52,56,58,59,60,68,71,76,80,82,83,85,87,93,98,101,104,105,108,110,111},
{1,3,8,9,13,15,16,18,22,23,24,25,36,37,38,41,43,51,52,54,56,59,60,62,64,65,68,69,70,71,72,73,74,75,76,77,82,94,95,96,98,102,103,105,106,108,110,111},
{5,6,8,10,14,15,21,23,24,25,27,29,32,33,36,39,44,52,54,57,59,61,64,65,69,70,72,74,75,78,79,80,81,82,84,85,86,87,89,91,93,95,96,97,100,102,104,108,111},
{2,6,7,9,12,13,16,19,21,22,25,26,30,33,35,37,43,44,48,55,56,57,58,60,62,73,74,78,81,84,86,93,96,99,101,104,106,107,110,111,114,115},
{1,3,4,5,9,11,12,13,14,15,16,20,22,25,26,29,30,31,32,35,37,38,39,40,45,47,48,49,53,56,58,60,62,63,68,69,70,72,76,79,80,82,83,90,91,93,94,95,96,97,98,106,108,110,111,113,115},
{6,8,11,13,23,24,26,27,28,29,32,34,36,37,39,40,41,44,46,47,48,49,50,54,56,57,61,65,66,67,71,72,75,76,77,80,85,87,92,97,98,104,105,106,107,108,110,115},
{5,7,8,9,10,11,12,15,19,28,29,31,33,34,35,36,37,42,45,47,48,54,55,56,62,68,69,71,72,74,75,77,79,80,81,83,84,87,88,89,92,96,97,103,106,108,110,111,112,114},
{3,9,11,13,14,16,18,20,22,24,31,32,35,38,40,41,44,45,46,47,48,51,58,59,61,62,63,64,65,66,67,72,78,79,81,84,86,94,99,102,107,109,112,114,116,117,120,124,126,127,128,133,134,136},
{3,6,8,10,12,16,17,18,22,24,25,26,28,32,33,36,37,38,42,45,46,52,55,56,64,66,67,69,70,73,78,79,80,82,83,89,91,93,94,96,97,99,101,109,113,114,118,119,120,121,124,127,128,132,135,136,138},
{1,10,12,13,14,16,17,19,21,27,28,30,33,37,40,41,43,44,45,46,51,52,53,55,71,74,75,79,82,86,91,95,96,97,98,99,101,104,105,114,115,117,119,125,129,130,131,133,135,137,138},
{4,7,8,9,10,11,15,16,18,20,21,23,30,31,32,33,36,37,42,43,44,46,48,51,53,57,59,60,61,62,63,64,65,73,74,77,83,86,88,93,94,97,99,102,103,104,105,106,113,114,115,118,121,123,125,129,131,134,138},
{1,3,4,6,7,8,10,11,12,15,19,20,23,24,25,26,27,30,31,35,38,40,45,52,53,55,56,61,62,69,72,73,75,76,77,82,85,86,88,92,93,95,96,100,105,106,112,114,121,123,124,126,127,128,130,132,133,135,138},
{1,2,4,7,8,13,14,19,21,22,23,28,30,32,33,37,38,39,42,45,46,50,52,57,58,59,60,62,66,67,69,75,76,80,83,84,87,89,90,91,92,93,98,100,101,104,106,108,110,112,114,117,122,127,133,135,136,138},
{1,2,10,12,13,17,18,23,24,26,27,32,33,34,37,39,40,41,43,45,46,47,49,52,54,55,56,58,62,64,65,67,78,80,81,83,84,87,90,93,97,98,103,106,109,110,113,115,117,120,121,123,125,128,129,130,131,132,135,136},
{1,7,11,12,13,16,17,18,20,24,25,26,31,32,33,35,37,38,41,44,48,50,54,55,59,60,62,64,65,69,70,72,73,80,82,84,85,88,90,91,95,96,99,101,102,106,107,108,110,114,116,117,119,121,128,129,136},
{2,3,5,8,12,13,14,17,20,22,25,26,27,32,33,35,43,49,52,59,64,65,66,68,69,72,73,74,76,79,80,81,82,84,90,93,94,97,99,100,101,102,103,107,108,109,112,113,114,115,117,122,127,129,131,132,133,135,137,138},
{1,6,11,15,16,20,21,25,29,32,33,35,40,41,45,47,51,54,55,58,59,61,63,64,68,72,76,77,80,83,85,89,93,94,95,97,102,104,106,108,109,118,123,124,125,128,130,131,132,133,134,135,136,138},
{1,3,4,5,6,7,8,10,12,15,23,24,27,29,38,39,41,44,51,59,60,69,70,76,80,81,82,92,93,95,96,99,102,105,106,110,113,115,124,125,126,128,131,132,133,134},
{2,3,8,9,11,12,15,17,27,31,38,40,41,43,49,50,54,58,62,64,68,69,70,73,74,77,84,85,86,87,88,90,91,92,93,98,100,101,102,105,106,107,110,111,115,120,123,130,131,132,134,135},
{1,4,6,8,13,14,16,22,25,28,29,30,34,35,36,41,45,46,49,51,52,54,57,60,62,64,67,70,71,75,77,80,84,86,87,92,97,98,99,100,103,107,108,109,110,121,122,123,126,130,131,132},
{1,5,6,7,8,9,12,13,16,22,23,26,27,30,32,33,35,41,43,45,46,48,54,56,64,67,68,69,70,73,74,77,80,86,91,92,93,100,107,113,114,116,117,120,121,123,124,127,129,134,137},
{1,3,4,5,6,11,12,21,22,25,29,30,33,34,35,36,38,40,45,48,49,51,52,53,54,59,60,67,68,69,70,72,74,75,76,77,80,81,82,85,87,92,95,96,100,102,104,105,107,108,109,113,118,120,123,125,126,136,138},
{2,6,10,12,14,17,19,20,22,23,26,27,32,34,35,36,39,42,43,46,54,55,56,57,61,62,66,72,79,80,81,82,83,86,90,91,93,99,102,104,109,111,115,116,117,118,121,125,127,129,132,134,137,138},
{2,4,9,12,14,16,17,22,26,29,31,33,34,35,36,40,44,50,51,57,58,60,63,64,66,67,69,71,72,73,74,75,78,85,86,88,90,91,96,98,102,108,111,114,117,118,120,127,128,130,132,134,138},
{2,9,13,15,16,19,23,24,25,26,27,28,30,31,32,33,34,36,45,48,56,58,61,64,70,71,73,75,78,85,86,88,89,90,93,94,95,98,100,102,103,104,105,106,111,115,119,123,124,125,129,132,136,137},
{1,2,3,9,10,11,13,16,18,25,28,33,35,37,39,41,43,45,47,50,51,52,53,56,58,60,61,63,65,66,70,78,79,83,84,87,93,97,99,101,107,108,109,110,114,115,116,117,118,119,120,122,123,125,133,135,136,137},
{2,3,5,10,13,15,16,17,20,22,23,24,27,30,33,34,36,38,39,43,44,49,50,56,57,58,59,60,61,63,64,66,67,68,69,70,71,72,74,76,78,81,83,86,87,88,97,99,104,105,106,108,109,111,112,115,118,120,123,125,132,134,135,137},
{1,3,8,10,14,15,16,18,20,21,22,23,31,32,33,38,41,42,45,47,51,53,55,56,61,64,67,69,70,71,74,78,81,83,86,88,90,91,92,94,98,99,102,104,106,109,110,115,118,119,124,126,128,130,135},
{3,4,7,9,10,12,13,14,16,17,18,21,22,23,24,29,33,36,39,40,41,45,47,48,50,51,53,59,60,64,67,68,73,74,75,76,77,81,86,87,89,91,94,97,98,99,100,101,103,104,105,106,109,110,111,112,116,117,119,120,121,123,124,125,126,127,128,130,136,138},
{2,6,7,10,11,15,16,23,24,26,36,37,38,39,40,41,43,46,47,48,52,55,58,61,62,65,69,75,77,82,83,86,87,91,96,98,99,103,109,110,114,116,117,120,122,124,126,128,129,130,134,136,138},
{1,5,9,12,19,20,21,27,28,29,34,38,40,41,45,47,48,50,56,61,66,68,72,74,77,78,82,83,86,88,90,91,92,93,94,102,105,106,109,110,113,115,116,120,122,123,128,129,131,132,133,135,136,137,138,139,142,143,145,146,148,150,151,152,155,159,160,161},
{1,6,7,12,16,19,20,22,26,28,30,31,33,36,38,39,47,48,50,53,54,55,57,58,62,69,72,73,74,75,79,80,83,86,88,90,91,92,93,96,98,100,101,105,106,112,114,119,120,121,127,128,130,135,136,137,138,140,144,145,147,148,152,159,161},
{3,4,6,10,20,24,26,27,30,33,35,36,38,39,40,41,43,46,50,51,53,54,57,61,62,64,66,68,69,70,78,80,81,82,85,87,88,89,91,92,97,99,102,105,109,112,114,117,120,122,127,128,129,130,131,135,136,137,139,147,152,153,157,160},
{1,2,4,5,10,22,24,25,28,29,32,34,38,41,43,46,47,48,50,51,52,55,57,60,69,70,73,74,75,77,78,83,88,97,99,101,102,103,107,109,110,113,115,117,119,120,121,122,123,127,131,132,136,137,141,142,144,145,150,152,154,158},
{1,3,5,8,13,14,16,17,18,23,27,29,32,33,34,39,41,42,44,48,51,52,53,54,57,65,66,68,70,71,72,73,74,76,78,82,86,89,90,92,95,96,101,104,106,110,111,112,118,119,120,122,123,131,134,138,140,141,142,143,145,147,149,151,152,156,159,160},
{4,9,10,12,13,14,15,16,17,21,23,24,25,31,32,34,41,55,56,57,58,60,63,66,67,70,74,82,88,89,91,92,99,103,104,105,107,108,109,118,119,120,121,126,136,141,143,144,147,148,153,155,156,158,159,161},
{1,3,4,6,9,10,12,14,16,17,18,24,26,31,33,34,35,36,39,40,43,50,53,55,56,57,64,68,70,75,78,79,80,83,84,85,86,94,95,98,101,107,108,109,110,111,115,119,120,122,127,129,131,133,138,139,143,144,145,146,150,152,153,155,157,158},
{2,7,11,12,16,19,22,24,27,28,29,30,34,35,36,39,40,41,43,45,48,51,54,63,67,69,70,71,72,74,76,77,79,82,83,85,88,89,90,93,97,98,99,100,101,102,107,108,109,110,111,112,115,116,117,121,122,125,128,129,130,132,133,136,141,145,152,153,155,156,157,159},
{2,3,5,6,8,11,12,14,18,30,31,32,34,36,38,39,40,44,45,48,49,52,54,56,57,61,62,64,65,66,67,74,75,77,78,81,82,84,88,89,90,91,92,99,101,102,108,110,111,113,120,121,127,128,130,138,140,141,142,143,144,148,151,153,155,158,159,160,161},
{2,5,6,7,9,13,14,18,24,30,31,32,42,43,44,45,47,49,51,52,53,54,58,59,67,69,70,71,74,75,76,77,78,81,82,85,87,91,92,93,94,95,99,101,102,103,109,111,113,114,117,119,121,122,123,124,131,136,140,146,147,148,153,156},
{1,4,5,7,9,13,19,22,26,33,35,36,37,38,39,45,47,49,51,52,53,54,55,58,61,62,66,70,72,73,75,78,79,84,93,100,102,104,109,112,116,118,119,122,124,125,126,129,136,137,140,144,148,149,150,156,158,159,160,161},
{1,5,7,9,10,12,13,15,16,17,18,20,23,24,26,33,34,35,36,37,39,43,44,46,48,52,53,56,57,58,60,62,63,65,66,69,70,71,73,76,77,78,79,81,83,88,89,93,94,95,96,98,100,102,104,106,110,112,115,116,117,118,119,121,124,128,130,135,139,140,142,146,151,152,156,157,158,159},
{1,5,8,10,12,13,17,18,20,22,23,25,28,32,33,38,42,43,45,47,49,50,53,56,59,68,70,74,76,77,81,85,86,97,100,102,107,110,111,118,119,127,129,130,132,135,137,140,142,143,145,149,150,154,156,158},
{2,4,6,7,8,10,11,12,13,14,15,18,19,22,25,27,30,34,36,40,43,47,48,50,51,55,58,61,62,68,69,70,72,74,75,76,78,81,84,91,93,94,99,100,101,104,107,114,115,117,118,119,120,123,124,126,127,129,132,137,138,140,141,144,147,149,150,151,156,157,160,161},
{1,2,3,7,8,11,13,16,19,22,23,25,27,29,31,34,38,39,41,42,46,47,48,49,58,60,64,68,73,75,77,78,79,82,86,92,94,97,99,101,102,105,107,111,113,116,120,126,128,132,138,141,142,149,150,154,156,158},
{3,6,7,9,10,11,12,14,15,16,18,19,20,21,24,26,28,29,33,36,38,39,46,48,49,51,53,55,56,58,69,70,71,72,73,74,76,78,83,85,87,88,89,92,93,95,96,100,106,109,110,113,116,121,122,123,130,134,136,139,141,142,144,146,148,152,153,154,155,158,160},
{8,9,11,27,28,30,32,35,44,45,46,49,51,52,55,61,64,65,67,72,73,74,75,76,77,78,79,83,85,88,92,93,95,96,98,100,101,105,107,109,112,116,117,118,119,121,122,123,125,126,127,129,130,131,134,143,144,145,147,151,154,156},
{1,2,3,8,9,13,14,19,21,24,27,30,33,37,38,41,43,45,46,47,50,53,54,57,60,62,64,65,66,68,69,74,82,83,84,85,86,92,93,96,98,107,111,113,114,118,120,121,126,129,132,137,138,139,140,142,144,151,153,154,156,159},
{2,5,7,11,12,16,18,19,20,21,25,27,29,30,31,32,33,39,41,44,50,51,53,55,56,60,61,63,64,67,69,78,79,80,81,83,86,88,90,93,94,96,105,106,109,110,113,117,118,119,120,126,133,135,137,138,140,141,143,144,147,154,160},
{1,3,4,7,9,10,16,18,19,28,30,31,35,36,38,39,41,43,47,54,56,58,59,67,70,71,73,75,79,80,82,83,85,86,87,90,92,93,94,95,96,98,105,107,108,112,113,114,117,118,119,126,136,137,140,144,145,146,149,152,154,158,159,160,161},
{1,2,8,10,11,12,16,17,21,23,25,28,36,39,43,44,45,48,55,58,62,65,67,72,74,75,77,78,83,87,91,96,99,100,101,105,112,116,120,121,123,124,126,127,128,133,136,137,141,145,148,151,153,155,157,159,160},
{1,2,4,7,17,26,29,30,33,36,40,49,54,55,57,58,59,61,65,68,74,76,77,78,79,80,86,87,90,94,96,98,100,101,102,104,105,106,108,110,111,114,116,117,118,120,121,136,139,140,141,143,150,151,156,157,161},
{1,3,6,7,8,9,11,14,20,24,25,27,30,34,36,37,39,43,45,46,48,50,51,53,54,56,58,59,60,74,78,79,80,81,88,89,91,95,98,101,104,105,112,116,117,123,127,132,133,134,138,144,147,151,152,155,156,162,166,176,177,179,180},
{3,6,8,9,11,12,14,15,17,21,22,30,36,37,39,40,41,44,51,52,60,62,63,67,71,72,73,78,79,82,85,86,88,89,92,95,96,97,99,101,105,108,109,110,111,116,121,123,126,129,130,131,132,134,136,139,141,142,144,146,147,148,150,151,152,154,156,158,163,165,169,174,175,176,177,180,182},
{2,6,14,15,16,20,26,27,30,32,35,37,40,42,43,53,54,58,59,61,63,68,70,72,73,77,80,81,83,86,88,93,94,97,99,100,101,104,108,110,115,118,119,124,127,129,131,132,133,136,137,144,145,146,147,148,154,158,165,170,172,175,182,183},
{2,3,4,9,10,11,13,17,19,22,24,28,30,36,37,40,41,43,45,47,49,50,52,57,58,60,61,62,65,68,69,70,71,73,76,78,79,80,85,87,89,92,94,95,97,102,104,106,109,117,124,127,132,136,137,139,141,145,148,150,152,153,154,158,159,163,164,167,168,170,172,173,174,175,178,179,180,181},
{1,5,7,8,11,12,17,19,20,25,26,29,30,35,36,40,41,43,44,48,59,60,63,65,66,67,68,72,73,79,80,81,86,89,90,91,94,98,100,104,105,108,109,110,116,117,125,127,130,131,132,135,136,139,142,143,157,158,159,160,163,166,167,168,172,174,176,177,180},
{2,6,8,14,18,20,21,24,25,26,29,32,34,39,41,42,44,46,47,55,59,62,67,70,72,73,75,76,79,81,83,93,94,97,99,100,101,104,106,111,113,116,117,118,119,120,125,129,130,133,135,139,147,149,150,151,155,157,158,159,161,165,166,168,169,171,173,176,183},
{3,8,10,12,13,14,15,20,21,23,27,29,34,38,39,42,43,45,50,51,53,56,57,74,78,80,82,86,91,93,97,99,103,105,106,112,113,118,121,122,123,125,128,132,140,144,145,151,154,159,160,164,170,171,173,174,179},
{2,5,6,11,12,17,22,25,27,29,30,31,33,34,41,42,44,45,49,52,54,56,57,59,64,65,72,74,75,82,83,87,88,91,94,99,100,103,104,105,106,109,118,125,126,129,131,136,138,141,143,147,153,157,158,159,162,168,171,173,174,176,178,182,183},
{6,7,9,11,15,17,18,23,28,29,33,35,36,38,39,42,43,44,45,47,49,50,53,54,56,57,58,59,60,61,64,65,67,68,70,71,72,76,77,78,83,85,86,88,89,90,94,96,99,101,104,111,114,119,120,121,126,128,130,133,134,135,138,141,146,148,149,150,151,159,160,167,168,169,170,172,181,182},
{1,2,4,5,8,10,11,14,24,28,29,30,36,39,41,45,47,53,54,58,60,63,65,66,67,68,74,76,77,78,79,80,83,84,91,93,96,97,98,99,106,107,109,110,111,113,118,122,125,131,132,133,139,140,150,154,155,160,161,171,173,174,183},
{2,7,9,13,15,17,19,21,22,24,25,26,29,32,35,36,38,41,44,48,51,52,53,55,56,58,60,63,65,68,70,72,73,74,76,77,80,81,84,85,86,91,92,97,100,102,105,109,112,114,115,119,120,123,126,128,129,130,131,133,134,137,138,142,145,146,149,153,155,156,157,159,160,166,168,170,174,180,182},
{1,4,5,7,9,14,17,22,23,24,25,32,33,34,37,39,40,41,43,46,57,60,61,63,71,73,74,77,78,79,86,90,92,93,96,97,101,102,104,105,111,112,115,121,122,123,125,126,130,131,139,140,143,144,148,149,150,151,152,155,156,159,162,163,164,166,168,171,172,174,181},
{5,8,11,12,14,17,18,19,23,26,27,29,30,38,39,42,46,47,50,56,60,61,62,65,66,67,69,70,79,82,84,85,87,89,90,91,94,96,97,100,101,105,106,107,109,112,113,115,117,120,121,122,126,127,131,133,135,140,143,144,145,147,152,154,155,156,162,163,167,169,172,173,174,178},
{3,4,5,6,7,8,10,11,15,17,19,20,22,23,27,28,33,34,37,38,40,43,46,48,52,53,54,56,59,62,63,64,66,67,68,69,81,82,83,86,91,94,95,98,103,106,109,112,113,114,115,118,122,123,126,133,134,137,138,144,154,156,162,164,165,166,168,169,173,175,178,180,181,182,183},
{11,13,18,26,29,30,31,32,35,41,42,44,45,46,47,49,52,54,56,59,61,63,66,71,74,76,83,90,91,93,94,95,96,98,100,101,102,105,110,112,115,118,119,121,124,125,129,131,133,139,141,143,144,145,146,147,150,153,154,155,158,160,161,166,167,168,170,173,176,183},
{1,7,11,15,17,20,23,25,36,38,39,41,43,44,49,52,54,55,56,57,59,60,61,62,64,68,71,72,75,79,81,82,92,93,94,96,99,101,102,103,104,110,111,113,115,116,117,118,119,121,125,126,128,130,134,137,138,140,141,142,144,146,147,152,153,154,158,162,169,170,172,173,178,179,180,183},
{3,4,7,8,15,16,17,21,24,25,28,31,32,34,35,47,49,50,52,53,54,58,60,62,65,67,68,70,74,77,80,82,87,95,96,97,98,99,104,106,111,112,113,115,116,117,126,130,132,139,142,143,148,149,150,152,155,156,162,163,164,168,169,170,173,174,179,180,182},
{3,4,6,9,11,15,17,18,20,22,23,24,26,28,32,33,36,39,41,44,48,49,53,54,56,57,58,62,65,69,70,71,72,73,74,75,89,90,93,94,102,103,104,105,106,108,109,114,115,117,118,119,123,124,126,128,132,135,140,141,144,145,149,154,155,157,166,169,172,175,179,180,181},
{2,5,8,11,12,14,16,21,25,26,29,32,33,43,47,49,50,52,53,56,57,61,63,64,66,68,71,73,74,75,76,82,86,88,92,95,98,105,109,112,118,119,123,125,126,128,129,130,139,145,147,150,154,163,164,165,166,167,169,171,172,178,179,180,181,183},
{2,6,9,10,11,12,16,17,19,20,24,25,26,28,30,31,33,34,35,39,43,46,47,48,51,57,58,59,61,63,66,68,69,71,72,77,78,82,85,86,87,88,89,91,92,93,96,98,100,102,103,104,105,106,109,111,112,116,117,119,121,123,125,128,129,131,135,136,140,141,143,144,148,157,159,160,161,162,165,166,167,168,169,170,175,179,183},
{1,2,4,5,6,7,8,9,12,13,15,16,18,22,23,24,30,31,32,38,39,43,46,47,48,51,53,54,56,58,71,72,73,75,77,78,79,81,85,91,92,102,105,113,114,119,120,121,130,131,136,137,138,142,143,144,145,147,153,154,157,158,160,168,177,178,179,182,183},
{5,6,7,10,11,12,13,15,16,18,24,25,26,27,29,36,38,41,42,48,49,51,55,56,57,59,60,62,64,65,68,69,70,71,75,76,77,83,86,95,96,100,103,104,105,106,107,110,113,115,118,121,127,128,135,136,137,138,140,144,152,157,158,159,162,164,172,174,180,181,183},
{1,5,6,7,8,9,14,15,18,19,21,22,25,44,45,46,47,48,50,51,52,56,62,63,64,67,72,74,75,78,80,82,83,84,86,87,90,96,98,99,100,104,105,106,107,108,113,114,116,118,119,120,123,129,137,138,144,148,149,156,161,162,168,170,171,175,176,177,179,182,184,187,190,192,193,194,196,199,200,202,205},
{3,6,8,9,17,18,20,24,25,30,31,33,37,39,44,47,48,49,50,53,54,55,56,60,61,62,64,65,66,67,70,73,81,83,84,85,88,90,91,97,99,100,101,113,114,117,120,121,124,131,132,133,135,136,138,140,141,143,144,146,151,154,158,159,163,165,168,169,171,172,173,176,178,182,186,187,189,190,192,193,196,198,199,200,201,202},
{2,3,8,15,19,20,29,31,32,36,37,38,44,48,49,50,53,60,64,66,71,72,74,75,76,79,82,83,84,86,89,91,93,99,101,103,108,114,115,117,118,121,125,127,129,130,131,132,136,137,141,142,143,148,151,154,157,159,162,165,166,168,175,180,183,185,187,189,190,192,193,195,196,198,199,201,203,204},
{1,4,6,7,10,11,12,13,14,15,16,20,21,22,23,24,25,26,27,29,30,32,33,36,37,40,45,54,56,59,64,65,69,70,71,72,73,76,79,82,84,85,88,91,99,101,102,105,107,110,112,115,118,119,120,124,131,133,138,143,144,148,151,153,154,155,157,160,161,163,167,168,169,170,171,182,183,191,193,200,201},
{7,8,14,15,23,24,26,27,29,32,34,36,37,39,43,47,52,53,55,56,58,62,63,64,67,72,73,79,81,82,90,94,98,99,108,109,115,116,119,121,127,131,132,137,139,144,145,148,149,155,156,160,162,163,169,170,173,174,175,176,177,181,183,184,185,186,188,190,191,193,194,198,199,202,204},
{1,6,7,8,9,10,16,17,18,22,23,25,27,29,30,31,32,34,38,39,41,46,47,49,54,56,57,58,61,63,65,68,69,71,72,73,74,75,77,81,85,87,91,96,98,99,101,102,109,110,111,112,114,116,123,125,127,128,130,132,133,136,138,139,140,141,142,143,144,150,151,152,154,155,158,163,164,165,168,169,170,172,175,177,185,189,191,193,199,200,201,204,205},
{3,5,8,10,11,13,17,20,21,26,27,30,31,34,41,42,44,45,46,48,51,52,55,56,58,60,63,67,72,73,79,82,84,89,92,93,95,100,103,106,107,108,109,111,120,121,122,124,125,126,127,130,131,141,145,151,152,154,156,160,162,163,164,166,167,169,171,172,173,176,181,184,185,186,188,191,193,195,196,198,202,203},
{2,3,5,7,9,12,14,15,21,22,25,27,31,32,37,40,42,43,44,46,47,49,51,53,60,63,64,65,66,68,69,73,76,78,79,81,83,84,85,86,88,89,94,98,100,104,111,113,115,121,124,126,130,131,136,137,147,149,153,155,163,164,165,167,169,172,175,177,180,182,183,185,194,198,199,200,202,204,205},
{3,8,10,11,12,17,31,33,35,38,41,43,46,55,60,62,64,69,70,71,72,75,78,79,82,87,90,91,92,95,97,100,103,106,108,114,115,124,125,129,130,131,140,141,148,149,156,159,164,167,169,170,173,175,176,177,178,179,183,188,189,190,195,199,202,203,204},
{1,4,7,9,11,17,19,20,21,22,24,25,33,34,36,37,50,52,55,56,57,62,63,64,65,67,68,70,71,72,78,80,81,83,90,93,99,100,101,103,105,106,107,115,116,118,120,121,123,125,126,130,132,133,138,145,148,150,153,155,158,159,160,162,165,168,169,171,173,174,175,176,177,178,185,186,187,189,190,191,192,194,195,200,201,202,203,204,205},
{2,7,8,11,18,20,21,24,27,29,31,33,35,38,39,42,44,45,46,48,54,56,58,61,68,69,78,79,82,83,87,88,92,93,102,106,108,110,112,113,116,123,125,127,129,131,132,133,134,135,138,139,142,147,149,153,154,155,158,160,161,167,169,171,172,175,178,180,187,188,189,191,192,199,202,203,204},
{3,6,7,8,11,14,19,23,26,29,31,33,42,44,45,47,48,51,58,59,61,71,72,79,80,83,84,85,89,90,93,95,97,99,101,103,104,105,108,110,111,114,116,117,118,123,124,125,131,142,143,144,151,155,156,158,160,164,167,169,171,173,175,176,180,181,184,185,187,188,189,190,194,198,199,200,205},
{2,3,6,11,12,13,14,20,22,23,30,31,32,33,36,41,45,46,47,48,50,51,55,63,65,67,68,71,73,74,76,81,82,84,86,88,89,94,97,100,106,107,110,111,114,115,121,129,131,132,138,140,141,142,143,146,148,154,156,157,158,159,164,166,169,171,175,176,179,190,196,197,198,202,205},
{1,2,3,4,7,9,10,11,18,23,31,35,38,39,40,47,53,55,56,57,59,60,64,65,74,75,77,78,87,88,90,91,94,95,96,97,99,100,103,108,112,113,114,115,118,126,127,135,137,138,140,141,146,148,151,159,161,162,164,168,169,170,185,188,192,195,196,201,203,205},
{3,4,5,6,9,10,11,16,19,28,32,34,40,41,43,44,45,51,52,59,60,64,65,68,71,72,74,76,84,85,88,93,97,99,100,103,105,108,111,112,114,118,120,121,125,128,129,131,135,136,137,140,142,143,149,152,153,155,156,159,163,164,165,169,170,173,175,178,179,180,185,192,196,198,199,200},
{1,3,4,5,10,11,17,23,25,26,27,31,32,36,39,43,47,50,51,55,56,60,63,67,69,73,74,77,78,81,82,83,84,88,95,97,98,99,101,102,103,108,109,110,112,113,116,117,119,121,122,127,135,136,138,140,147,148,155,156,158,160,161,163,166,170,171,172,173,175,176,181,187,188,195,197,198,201,204},
{2,3,4,5,10,15,18,21,30,31,32,33,38,39,40,44,47,50,52,56,57,58,61,63,66,70,73,74,81,82,85,86,88,89,91,92,93,94,95,99,103,108,109,112,113,115,116,117,120,123,124,128,130,131,132,133,134,135,140,144,145,151,153,155,158,159,160,166,167,169,173,177,179,180,182,183,185,186,187,188,190,191,194,195,199,201,204},
{2,7,8,11,12,13,16,18,22,27,31,33,36,40,41,44,45,47,50,54,56,57,60,61,64,65,72,75,76,77,80,81,82,84,89,91,94,95,97,104,106,107,112,114,116,118,120,121,122,125,129,130,132,133,138,140,146,151,157,159,160,164,165,167,170,172,177,179,185,188,189,192,194,196,198,199,201,202,203,204},
{1,2,3,4,5,10,14,21,25,27,29,30,31,33,34,37,43,44,48,50,51,54,57,58,59,61,63,69,70,71,72,75,76,78,81,87,89,91,93,94,95,101,102,107,108,121,122,125,127,129,131,133,136,137,138,148,152,153,157,160,162,163,166,170,171,172,174,175,176,179,180,181,182,184,186,187,188,189,191,192,196,197,199,201,202,205},
{1,5,6,7,8,10,11,13,17,18,19,21,22,23,26,29,31,33,34,35,38,43,44,49,50,52,53,55,57,58,63,64,65,66,67,68,72,74,80,87,88,91,92,94,95,104,107,109,112,113,114,115,116,117,118,119,122,126,128,130,131,134,135,136,137,150,156,157,159,163,165,166,167,170,171,174,176,177,186,189,190,191,193,196,197,200,202,205},
{3,6,7,8,10,12,19,20,30,36,37,39,45,48,49,50,51,53,56,59,62,65,68,69,71,72,73,74,76,83,84,85,88,89,91,99,106,107,110,111,112,114,119,124,130,136,137,139,141,142,143,148,149,153,154,155,157,161,162,164,166,169,171,173,174,175,177,178,179,182,184,185,187,189,190,192,202,205},
{5,7,8,12,17,18,19,20,21,22,27,30,31,33,34,41,45,46,47,48,49,52,58,60,63,65,67,71,74,75,76,77,82,86,87,89,90,97,99,101,102,106,107,108,110,111,112,116,122,123,125,128,131,132,133,135,147,150,157,160,161,163,165,167,169,172,173,178,179,181,182,184,186,191,192,194,195,196,202,203},
{4,6,7,8,10,11,16,23,24,25,27,31,33,34,35,36,37,38,39,40,44,47,51,54,59,60,61,68,69,70,71,74,75,77,79,80,89,90,91,93,94,96,105,107,110,115,117,118,120,122,124,128,130,132,133,136,141,146,147,149,150,151,152,153,161,163,164,165,169,170,171,173,174,177,181,182,183,184,185,186,191,193,198,200,204},
{1,2,5,6,8,10,12,13,14,16,17,18,19,21,22,24,25,31,32,36,39,42,49,51,53,58,59,60,61,68,71,75,77,83,85,86,93,94,101,102,103,104,106,107,112,113,116,117,121,124,128,135,144,145,146,151,155,156,162,165,173,179,180,186,192,194,201,204,207,208,209,211,212,215,222,225,228},
{5,8,10,11,12,13,18,23,34,35,37,45,48,49,53,55,57,59,64,65,66,67,69,72,73,78,81,86,88,91,94,95,97,101,102,103,104,106,108,113,115,116,119,120,123,127,128,131,133,139,140,147,149,150,151,153,154,155,157,158,160,162,163,166,167,170,173,178,179,182,185,186,190,191,192,195,197,200,205,206,208,211,214,216,219,221,224,225,226,228},
{2,3,5,8,14,19,23,25,28,30,31,33,34,35,36,41,43,47,52,53,55,58,62,63,66,68,69,74,77,78,83,84,85,90,92,94,95,97,98,99,100,102,106,107,108,111,112,113,118,119,120,121,124,126,128,134,139,140,142,145,146,150,153,155,157,159,161,162,163,170,171,175,178,181,182,183,184,186,188,192,194,195,196,204,207,210,213,218,220,223,224,225,227,228},
{1,2,4,6,12,13,14,21,22,29,33,35,37,38,39,40,41,46,48,54,58,60,64,67,73,74,75,76,78,82,83,86,87,92,95,101,105,107,113,115,116,117,118,119,120,121,122,125,127,129,133,135,144,146,147,150,151,152,156,157,160,161,162,164,165,167,170,175,177,178,183,187,191,192,195,197,200,203,204,205,209,210,211,215,217,221,222,223,226,227,228},
{6,7,8,10,11,15,19,20,22,23,26,31,32,34,37,39,40,44,51,55,56,59,61,62,67,68,73,74,75,76,77,79,83,84,86,93,95,101,103,105,107,110,111,112,113,114,115,116,117,119,122,123,124,130,133,136,137,138,140,141,142,144,146,147,148,149,151,152,153,155,159,161,163,164,167,169,170,173,177,179,182,183,184,185,186,188,189,193,194,199,203,208,209,210,212,216,218,225,226},
{3,7,8,10,12,13,24,27,28,31,32,36,38,39,40,41,42,48,49,52,54,57,58,61,62,64,66,68,74,75,77,82,83,85,93,94,98,100,103,104,106,107,112,115,116,118,121,125,128,130,131,134,136,137,140,141,143,144,145,146,147,148,151,152,160,161,166,167,170,172,183,186,187,189,192,195,197,198,201,207,210,212,213,214,218,222,223,224},
{1,4,13,15,17,19,23,25,26,28,29,34,40,41,44,46,48,49,50,51,52,56,64,66,67,70,73,75,78,82,83,89,92,93,94,95,96,98,99,101,103,106,110,111,112,113,117,120,124,125,126,129,131,134,135,139,141,143,145,148,149,151,152,153,162,164,169,171,174,175,177,179,180,181,182,186,188,189,190,191,192,194,197,198,201,202,204,206,209,210,211,216,217,219,222,224},
{1,5,9,10,14,22,24,27,31,32,35,38,43,44,46,47,48,49,50,55,58,59,60,62,63,64,71,73,74,76,78,80,81,85,87,88,90,94,95,96,97,114,119,120,122,123,125,131,132,133,139,141,142,143,144,145,146,148,149,151,152,153,155,160,162,163,165,166,169,170,173,177,184,190,191,196,200,201,203,209,211,221,223,226,227},
{2,4,7,10,11,16,17,19,20,21,26,29,36,39,40,42,43,47,51,52,54,57,58,59,60,63,66,67,68,69,75,76,86,88,94,98,103,104,108,112,118,120,122,123,124,126,127,129,130,131,132,143,144,145,150,151,152,156,159,162,163,165,168,169,177,178,180,191,196,197,203,205,206,209,210,213,214,216,218,219,221,226,227,228},
{4,6,7,9,11,12,14,15,16,19,21,23,25,28,31,33,36,43,48,51,52,55,57,58,59,60,61,62,64,65,66,67,70,72,78,81,84,85,86,88,100,102,103,108,111,119,122,125,126,129,131,132,137,138,139,141,142,145,147,151,152,156,157,158,161,163,165,174,180,183,187,189,190,191,192,194,199,201,203,212,214,215,220,223,224},
{6,9,10,13,14,24,25,26,28,29,30,31,32,33,34,35,36,39,45,47,49,50,51,52,54,55,57,59,60,64,66,69,82,83,87,91,92,97,98,101,103,104,105,107,108,109,110,116,119,121,128,129,136,137,139,142,143,144,147,148,155,156,160,161,165,168,172,175,180,184,185,189,190,192,193,195,197,198,200,201,206,208,210,211,212,214,216,220,221,223,227},
{4,7,8,13,16,17,20,21,23,24,25,26,28,31,33,39,40,41,42,48,53,55,58,59,61,62,63,67,69,70,77,80,82,83,84,85,86,87,89,91,99,104,109,114,116,118,120,127,129,131,135,136,138,140,142,143,145,146,148,151,154,155,158,159,161,162,163,165,167,168,170,171,175,176,179,184,188,190,195,200,201,202,203,207,210,212,213,215,220,224},
{1,3,10,14,18,25,27,29,30,35,36,39,40,42,49,53,54,55,56,57,58,59,60,62,63,64,68,70,72,74,75,77,78,80,81,82,83,84,87,88,89,93,95,96,99,104,107,114,116,117,118,121,122,124,126,130,132,133,136,137,139,151,153,155,158,159,160,164,168,169,173,174,177,179,182,183,185,186,194,195,200,205,206,207,208,210,214,222,223},
{3,8,12,17,22,26,27,30,31,32,42,43,44,48,51,53,54,55,59,61,62,63,65,67,70,76,77,80,81,82,84,86,88,94,95,101,102,105,108,111,113,117,118,120,122,125,126,131,133,135,136,137,141,142,146,148,155,156,157,158,160,162,163,167,171,174,175,180,181,182,183,184,186,189,191,192,194,196,199,200,202,204,205,209,210,213,214,215,220,221,225,226,228},
{13,14,15,17,20,22,25,30,32,36,37,38,44,51,52,53,56,58,60,64,66,67,79,81,87,91,92,93,94,97,98,99,100,101,102,104,108,112,114,115,116,117,119,121,125,127,128,130,132,134,136,140,141,146,147,148,153,154,155,157,160,163,165,166,167,168,169,170,176,179,182,184,187,188,189,190,192,193,194,196,200,207,208,212,220,221,224,226},
{2,6,7,12,15,17,18,21,22,25,29,31,33,37,40,41,43,44,47,48,56,57,59,64,65,66,68,69,73,74,77,78,82,85,95,96,97,99,100,102,105,108,113,114,115,117,121,122,124,125,133,134,136,137,138,139,140,141,142,145,148,151,156,159,162,164,165,166,167,168,171,173,174,175,176,177,179,180,181,186,188,189,192,194,197,198,199,202,203,204,211,212,213,215,216,217,222,224,226,228},
{1,2,4,5,8,10,11,13,15,20,22,24,25,26,28,30,36,41,44,48,52,53,54,58,61,64,66,69,70,71,72,79,80,81,83,89,90,92,93,97,98,100,105,107,108,110,111,112,113,114,117,120,121,122,125,126,128,130,139,141,142,143,147,150,154,159,161,162,163,165,168,173,178,179,180,182,183,184,187,190,191,192,193,199,200,205,207,210,211,213,215,218,224,225},
{3,4,5,7,8,9,11,12,14,16,18,19,20,21,24,25,26,27,29,30,31,32,33,34,35,36,37,39,40,45,46,49,50,56,57,59,65,66,67,68,69,71,75,77,78,82,87,88,89,96,99,104,105,106,111,116,117,118,122,124,126,128,135,139,143,145,148,150,151,161,163,166,169,171,172,173,174,175,179,181,185,189,190,192,193,203,205,206,208,209,217,219,223,224,225,228},
{2,4,9,11,12,13,19,21,27,28,30,34,38,40,42,46,48,54,55,57,58,61,68,70,72,75,78,84,85,86,87,88,97,99,103,105,107,109,112,113,117,118,126,127,128,130,131,132,133,134,139,144,145,146,149,150,154,155,158,159,160,161,171,175,176,177,179,180,182,185,187,192,197,200,201,202,203,204,207,210,211,213,215,216,218,220,221,222},
{8,12,13,15,19,20,22,28,29,31,32,34,35,37,39,41,44,46,49,53,54,55,57,58,65,67,71,72,73,78,79,82,84,85,86,87,96,100,103,106,112,117,118,120,121,123,124,125,128,130,132,134,136,140,141,146,152,155,156,157,158,159,161,163,169,170,171,176,180,183,185,186,187,188,192,193,196,197,198,199,201,202,203,204,210,212,213,218,219,222,223,228},
{1,4,7,15,19,21,22,27,30,31,33,37,38,41,42,48,50,52,54,56,57,59,62,66,67,69,71,72,73,75,77,78,79,83,86,87,88,89,90,94,96,99,100,102,103,104,107,108,109,114,115,119,121,122,124,125,128,130,131,134,139,140,143,144,145,149,151,152,156,157,158,159,160,161,162,166,167,168,170,179,180,183,184,185,193,194,195,199,202,205,206,208,211,214,216,218,221,227,228},
{1,3,8,15,19,23,24,28,30,33,37,38,41,43,45,46,47,48,50,51,56,57,58,59,61,62,64,65,66,67,74,77,80,83,85,87,89,90,91,92,93,94,96,97,100,106,109,116,117,119,120,122,123,127,133,136,137,138,139,143,144,147,148,150,151,153,155,156,158,159,161,162,164,174,178,179,180,181,191,192,193,194,195,197,198,199,200,201,203,204,206,207,209,212,215,216,223,225,226,228},
{4,5,7,9,11,12,14,16,22,23,24,26,27,29,33,36,39,40,41,42,46,48,51,55,57,59,62,65,71,76,77,79,82,84,87,88,89,91,92,95,96,97,104,106,107,110,111,113,116,118,120,123,126,128,129,139,140,142,143,144,147,150,152,155,156,157,159,160,161,163,168,170,176,179,183,184,188,189,190,191,196,198,202,203,204,205,208,209,211,214,215,218,220,223,224,227,229,230,231,233,235,237,239,241,245,248,250},
{1,4,6,14,15,19,24,26,27,28,30,34,35,37,38,44,47,49,50,51,52,54,55,56,58,59,61,67,72,75,79,82,85,87,88,89,90,97,98,105,107,116,122,125,126,127,131,133,134,135,137,138,140,141,142,144,145,149,150,159,161,162,163,165,166,167,168,170,172,173,175,176,179,181,186,187,191,192,194,197,205,207,209,211,212,213,214,215,218,223,226,229,232,233,235,236,238,243,244,247,249},
{12,14,17,20,33,40,49,51,52,56,57,63,67,73,74,75,79,80,83,84,85,93,97,99,101,103,104,105,106,107,108,112,121,123,127,129,132,133,137,138,140,141,143,146,149,152,153,154,158,159,161,162,165,167,172,175,176,179,180,184,192,194,195,196,198,200,204,206,207,209,210,218,220,222,225,228,230,232,236,237,238,241,244,248},
{3,4,5,8,10,11,12,13,15,17,18,21,22,25,29,31,33,37,42,43,44,45,46,49,56,58,64,71,72,73,75,78,79,81,83,87,88,91,93,95,103,104,108,109,111,112,113,114,118,120,121,123,125,126,127,133,135,136,138,142,144,146,147,148,155,158,160,165,166,167,168,169,177,178,180,181,183,184,188,190,191,192,196,197,198,199,200,203,205,208,216,217,220,222,225,228,229,231,233,236,242,245,247,248,249},
{1,2,7,8,14,18,20,21,22,23,31,33,36,37,41,42,45,56,62,64,67,68,73,77,84,86,94,99,100,101,103,107,111,118,119,121,125,128,129,133,139,140,141,142,146,147,148,152,153,154,156,162,164,166,171,172,176,177,178,189,191,193,196,205,206,214,217,219,220,223,224,226,227,228,229,231,232,236,238,241,242,245,248,250},
{1,5,9,10,12,16,18,19,20,26,27,30,39,41,42,45,46,48,51,52,53,58,60,62,63,65,68,69,71,77,79,82,87,96,99,102,107,109,110,112,116,117,118,123,124,129,136,137,140,141,143,144,149,151,152,159,161,162,163,164,165,167,169,170,174,176,177,178,181,184,185,186,187,189,191,193,194,197,198,199,203,204,208,210,216,217,220,223,225,226,228,233,235,237,239,242,250},
{2,3,4,7,8,12,15,16,17,20,22,24,26,28,29,30,34,37,38,39,40,41,42,43,47,51,55,56,62,63,65,70,72,73,74,75,77,78,79,82,86,94,95,96,98,101,103,104,106,112,114,117,119,120,121,122,124,126,128,129,131,137,142,147,149,150,151,154,155,165,166,174,175,181,183,185,186,189,192,195,197,202,204,205,206,210,211,215,216,218,219,227,233,242,244,245,246,249},
{2,4,5,6,7,8,11,15,17,19,22,24,26,29,33,34,38,40,41,42,43,44,45,46,47,49,54,58,59,62,63,64,66,67,68,69,70,72,73,74,76,83,87,89,90,91,92,93,96,97,98,100,103,107,110,111,115,116,117,120,121,122,125,126,127,131,133,134,135,138,144,145,148,151,154,156,157,160,161,162,163,165,166,169,171,172,174,175,176,182,184,187,188,190,194,195,196,197,198,199,202,203,205,206,209,213,216,218,223,226,227,228,233,239,244,246,247},
{1,4,7,9,22,24,28,31,36,37,41,43,49,54,58,63,66,69,70,73,74,76,77,83,87,88,89,93,95,96,99,100,104,105,108,109,112,115,117,124,126,128,129,130,134,136,138,142,148,149,150,151,152,155,157,158,161,162,166,167,170,172,173,176,178,180,182,184,187,188,190,194,200,203,205,207,208,210,215,216,217,218,219,224,226,227,229,230,232,233,234,235,238,239,242,244,245,248,249},
{1,6,9,10,12,14,15,16,18,19,22,25,27,30,34,36,37,42,44,45,50,54,58,61,62,68,71,74,79,81,85,90,92,93,94,96,97,100,101,106,107,108,114,116,118,119,125,129,130,131,134,135,136,141,145,149,151,154,156,158,160,161,164,167,168,171,172,174,175,178,180,183,184,193,195,198,201,202,203,204,209,212,213,214,217,218,220,221,223,224,227,230,231,233,238,241,242,245,249},
{3,4,5,8,10,16,17,21,29,31,32,33,42,49,53,55,57,58,59,71,73,78,79,85,88,92,93,95,99,103,104,105,109,110,113,115,116,117,118,121,123,124,126,134,135,136,141,143,147,148,150,152,154,155,156,157,158,160,164,167,168,169,174,175,181,182,183,190,191,194,198,200,209,210,211,212,214,215,216,222,224,231,234,235,236,239,240,243,244,245,247},
{6,7,8,12,14,16,24,27,28,32,33,34,38,39,40,42,43,44,45,50,52,53,55,58,64,66,75,76,77,78,79,82,91,96,105,106,108,109,110,118,125,128,130,131,142,146,147,148,151,152,153,156,161,162,163,166,169,170,172,174,175,176,177,180,182,184,185,191,192,193,200,201,204,206,210,212,216,217,218,225,232,233,236,237,239,240,241,245,249},
{3,4,6,9,11,16,21,23,25,28,35,36,37,38,39,43,45,48,49,56,60,64,65,66,68,70,72,73,82,84,85,87,88,89,91,92,96,97,98,105,106,108,109,113,115,117,118,119,120,122,123,125,126,127,128,130,132,135,136,137,140,141,142,147,150,152,153,155,157,159,160,161,163,166,167,168,173,176,182,183,184,185,186,187,189,193,194,198,200,203,204,208,209,211,212,217,218,219,223,224,227,228,230,231,235,236,237,238,240,241,242,244,246,249},
{1,2,3,4,6,9,10,11,14,15,22,26,27,31,32,33,34,36,37,40,44,46,47,48,50,51,54,57,59,60,61,63,64,68,69,70,73,75,81,82,83,84,86,97,98,100,101,103,104,105,107,108,109,111,112,113,114,116,117,122,124,127,128,130,131,132,133,137,141,142,145,148,150,153,154,155,156,157,159,160,161,162,163,166,167,168,170,172,173,175,178,181,185,187,190,191,193,194,197,202,203,208,209,214,215,218,220,222,226,228,234,236,237,238,243,246,247,248},
{1,4,5,6,8,10,12,13,15,16,17,18,19,20,21,22,23,24,25,26,30,33,37,39,40,43,49,55,58,61,65,73,76,80,85,86,88,95,102,106,109,115,117,121,124,127,130,131,132,133,135,136,140,142,143,145,146,148,150,153,157,158,166,167,169,176,178,179,180,181,182,183,189,192,197,198,202,203,204,206,208,209,211,212,215,217,224,227,229,233,236,239,245,246,247,248},
{3,5,6,9,10,14,15,16,18,28,30,33,34,35,36,45,46,47,50,52,53,56,57,58,59,65,66,67,68,70,71,76,79,84,90,94,95,99,100,106,107,109,110,114,115,116,117,119,124,126,128,129,134,135,137,138,139,140,142,144,147,149,154,163,165,166,167,171,174,181,182,183,187,188,189,196,197,202,204,206,208,209,210,212,213,216,220,221,222,223,227,229,230,236,241,247,249},
{1,2,3,6,7,10,11,12,14,15,21,23,24,26,28,29,33,43,51,53,54,55,56,58,60,63,64,65,66,70,71,72,73,74,75,76,79,80,85,91,92,93,94,95,99,104,105,107,108,109,114,116,117,118,121,123,124,133,138,139,142,145,150,152,153,155,156,159,160,161,165,168,171,174,175,181,184,185,186,187,188,189,190,194,198,200,204,206,207,209,210,211,213,214,215,218,219,220,223,225,226,227,230,233,235,236,238,239,240,244,245,250},
{2,9,11,12,14,15,22,23,25,29,31,32,34,36,38,39,40,42,43,44,47,49,51,53,57,62,67,70,78,79,80,82,84,88,89,94,95,96,100,102,107,108,109,112,118,122,124,125,126,127,130,133,142,145,149,150,151,153,154,158,159,161,163,164,172,175,179,181,187,192,193,199,201,202,203,206,209,214,215,216,219,221,223,226,227,229,230,231,232,233,234,235,236,244,246,247,249,250},
{1,8,10,12,13,15,16,18,20,22,25,26,29,31,32,37,42,46,48,50,52,55,59,61,64,65,67,68,69,70,74,76,77,84,93,95,96,98,103,105,107,108,109,110,112,115,116,117,118,119,121,122,124,126,132,137,138,140,141,142,143,149,151,154,155,158,160,161,164,165,166,167,168,169,171,174,175,177,178,180,181,183,184,187,188,191,193,194,196,201,206,207,209,211,212,213,215,219,223,226,228,229,230,231,233,235,236,238,244,246},
{1,2,4,5,6,7,13,14,16,18,19,21,25,28,30,33,34,40,48,51,52,57,58,59,60,62,63,66,72,76,79,81,85,86,87,89,91,92,96,97,99,109,113,116,121,124,126,128,130,133,138,140,141,142,147,148,149,151,153,154,156,159,160,161,162,170,172,184,186,193,196,198,199,201,202,203,206,209,211,212,213,217,218,220,221,222,226,227,233,235,237,238,239,240,241,242,246,248,249},
{5,8,9,10,13,17,20,22,23,25,26,28,30,32,33,34,36,38,45,48,49,52,53,55,56,57,58,59,61,65,72,73,74,78,80,87,88,89,94,95,98,101,102,103,108,110,116,117,118,120,121,122,124,127,133,138,140,141,142,143,146,147,148,149,150,153,154,156,157,159,167,170,171,172,174,175,176,177,178,179,181,182,183,185,186,195,199,201,202,204,205,208,209,210,212,216,217,222,227,228,231,233,234,236,243,245,247},
{1,8,9,16,22,23,25,26,27,28,32,33,34,36,38,43,44,46,54,55,56,57,58,59,61,62,63,65,66,68,69,70,80,82,83,85,88,89,91,100,101,102,104,107,108,110,111,117,119,120,124,125,126,131,137,138,140,141,142,143,144,147,148,149,153,154,157,159,163,168,170,173,174,177,180,181,184,188,191,194,198,200,201,202,203,204,206,207,208,212,213,214,216,217,219,220,223,227,228,232,233,235,240,241,242,246,249},
{1,2,7,8,11,14,18,19,23,24,25,27,28,30,32,33,38,39,44,46,50,54,55,58,60,61,62,65,67,77,78,80,81,82,83,84,89,93,97,105,106,107,111,114,117,118,119,120,122,124,128,134,137,141,142,144,145,146,147,150,151,156,157,158,162,163,164,167,169,170,173,175,179,182,184,185,187,195,203,206,215,218,225,226,227,228,232,236,237,242,244,245,247,250,251,253,254,256,257,260,261,262,265,267,272},
{9,12,13,15,20,23,24,25,27,28,36,38,40,41,44,47,48,49,50,51,53,54,59,61,63,66,68,73,74,75,76,80,83,86,87,88,92,94,95,100,102,105,106,108,111,112,114,115,117,119,120,121,122,123,125,126,128,129,130,134,135,139,146,148,150,152,157,158,159,162,163,169,170,172,175,176,177,181,185,187,188,190,192,195,198,199,204,207,209,210,211,212,214,215,216,217,218,219,220,222,234,235,237,243,247,248,249,256,258,259,261,265,266,267,268,269,272},
{1,3,5,7,10,14,15,18,23,25,26,34,36,40,42,48,49,51,52,53,54,56,58,59,61,62,63,67,68,75,85,86,89,94,97,101,102,104,105,106,107,108,109,114,117,119,121,122,124,126,128,129,131,133,134,140,141,143,146,149,151,153,154,156,157,159,162,163,165,166,167,169,171,172,176,184,185,186,193,196,200,202,203,204,205,206,212,218,220,223,225,228,229,233,237,240,244,247,248,249,251,252,253,261,262,263,264,267,270},
{1,3,5,6,8,11,12,15,17,20,23,24,25,26,29,32,34,36,38,39,43,44,46,48,50,52,58,62,63,64,66,68,70,73,74,77,80,85,88,90,92,94,97,102,105,111,114,117,119,122,123,124,126,131,133,136,137,139,142,146,149,150,151,152,155,168,173,180,182,184,185,190,192,193,194,198,200,201,202,203,204,207,209,210,211,214,217,220,221,223,225,232,236,239,241,245,246,248,251,255,258,259,261,262,264,267,270,272},
{2,3,5,6,10,13,14,22,23,25,26,27,30,32,34,38,40,41,49,50,52,54,55,56,60,62,63,64,66,68,70,73,77,79,83,90,99,100,108,109,116,122,123,124,127,128,129,130,131,133,134,138,146,148,150,151,153,154,155,157,159,164,169,171,173,174,176,180,184,190,194,195,196,202,203,204,206,209,213,218,219,220,226,228,229,231,232,235,238,240,243,245,249,250,252,254,257,258,261,268,272},
{1,4,7,9,11,13,16,19,20,22,23,25,26,35,37,48,49,51,54,56,58,60,61,63,71,73,75,77,79,80,84,86,87,94,96,97,99,100,101,103,106,107,109,115,118,120,121,122,123,126,129,132,133,137,139,142,149,156,159,160,162,164,166,168,170,172,174,175,177,178,180,182,183,185,186,187,189,193,198,201,202,206,209,213,215,216,217,218,221,223,225,228,229,230,231,232,233,236,238,240,241,244,245,246,247,252,263,265,269,272},
{2,5,6,11,14,16,21,22,26,27,28,30,32,34,35,36,44,48,51,53,54,57,59,61,63,64,68,69,70,79,81,84,85,89,93,94,96,98,100,102,103,105,107,110,116,119,122,123,130,132,138,141,145,147,149,150,151,152,154,156,158,167,169,171,174,175,182,183,186,187,190,192,194,195,199,200,203,204,205,209,211,213,216,218,220,224,226,229,232,233,237,244,245,247,250,254,255,257,258,260,261,262,267,269},
{9,11,19,20,22,26,27,28,34,38,41,42,46,47,49,50,57,59,66,67,72,73,77,78,81,82,83,85,87,89,91,92,95,96,99,102,107,108,110,111,112,113,118,119,120,121,125,135,136,140,141,142,145,150,151,154,156,159,160,162,163,167,168,169,174,175,177,183,184,185,189,192,194,198,200,201,204,207,218,220,221,224,225,227,228,230,231,232,233,234,236,237,239,240,242,243,245,248,249,253,256,259,260,261,263,265,270},
{3,4,6,7,11,14,17,18,19,21,22,23,24,29,30,35,36,40,42,45,47,48,50,51,52,57,60,64,66,67,72,76,79,81,83,84,89,90,92,94,96,99,100,102,104,106,107,108,112,113,115,116,119,123,131,132,133,139,145,149,150,151,153,154,156,157,159,160,162,163,168,170,176,177,178,180,181,182,185,186,189,192,195,202,206,213,216,218,222,223,229,232,233,235,236,237,240,241,244,246,248,252,257,259,260,261,262,263,264,266},
{3,5,9,10,11,12,13,16,17,19,20,26,33,39,44,46,48,49,51,52,54,56,58,63,64,66,67,72,73,77,79,80,81,82,84,85,86,87,89,92,94,96,105,106,108,113,118,120,122,124,125,127,129,130,133,135,136,142,144,150,152,154,157,158,160,163,166,169,170,171,173,174,177,182,188,190,191,192,194,203,205,207,208,215,216,218,219,221,223,225,226,229,233,235,237,238,240,242,243,244,245,247,259,265,267,270,271,272},
{3,6,7,11,12,15,16,21,25,27,31,35,37,40,41,42,43,45,46,47,48,51,53,55,56,57,58,59,60,62,63,64,69,71,74,76,77,79,82,86,87,88,89,101,103,104,106,107,110,113,114,115,118,119,121,123,124,126,127,130,132,135,136,137,139,142,144,145,146,150,156,159,160,161,164,170,181,182,184,185,186,190,192,194,196,199,202,212,213,214,216,218,219,226,227,228,233,234,235,237,241,245,246,247,249,251,253,254,255,257,258,259,261,262,264,265,269,270,271},
{1,4,6,7,9,12,17,18,20,21,27,29,33,35,38,40,41,49,50,51,52,54,55,56,58,59,60,61,64,74,76,78,83,85,88,91,92,93,98,105,109,110,112,114,117,118,119,120,123,124,125,130,131,132,136,137,138,140,142,144,146,147,154,155,158,161,169,171,172,174,175,177,179,182,184,185,186,188,191,193,194,195,197,198,199,200,201,203,204,206,207,208,214,218,220,221,226,227,231,232,234,240,249,250,252,254,261,262,264,265},
{3,7,10,11,12,14,16,17,18,20,22,28,39,42,44,45,46,47,48,49,51,53,56,58,59,60,64,67,69,71,73,77,82,83,85,86,87,88,92,96,97,98,101,102,112,116,117,118,120,122,124,125,127,128,129,132,135,139,140,144,149,153,154,155,157,162,165,172,173,174,176,177,178,182,183,184,188,190,191,192,196,197,199,200,201,202,203,208,210,214,215,217,218,219,220,223,231,233,234,236,237,241,247,248,249,250,251,255,258,259,260,261,264,265,266,267,269},
{3,4,5,6,9,10,11,12,14,15,16,18,19,21,23,24,25,26,29,31,34,36,38,42,44,47,48,52,54,56,57,58,59,62,65,67,70,71,76,78,79,81,86,88,89,92,93,95,96,98,100,102,104,109,110,113,114,117,118,125,127,129,131,133,134,141,143,144,149,151,152,158,159,162,164,165,168,170,173,174,175,178,179,181,189,192,193,194,196,197,198,199,203,207,215,217,222,224,225,227,228,229,232,233,234,235,236,238,239,241,243,244,246,247,250,252,253,255,257,260,261,266,269,270},
{6,8,11,13,23,24,26,27,28,31,33,42,60,63,66,68,71,74,83,86,88,90,99,101,102,104,105,106,107,109,111,113,116,117,119,123,125,127,128,131,132,134,137,143,147,150,151,155,158,160,161,162,164,165,167,169,170,173,175,177,180,185,186,190,191,195,198,203,208,210,211,214,216,218,228,234,235,236,237,239,249,251,254,259,266,268,270,272},
{3,5,7,11,16,17,21,23,27,29,30,32,33,36,37,38,40,46,47,50,53,55,57,58,59,60,68,69,74,77,79,80,81,82,83,84,85,86,91,92,98,101,102,103,110,112,114,115,119,120,122,129,130,131,133,134,135,136,137,139,143,147,154,157,165,168,172,175,181,183,184,190,191,192,195,196,201,202,205,206,212,219,223,229,230,235,236,240,243,244,246,250,253,256,257,260,264,265,267,269},
{1,9,10,12,13,16,17,19,20,25,26,29,33,34,37,38,40,41,47,54,55,56,61,62,68,69,70,73,75,76,77,79,80,83,85,86,89,92,95,96,97,99,106,110,111,113,114,115,117,120,121,123,125,132,134,138,139,144,146,149,150,151,153,154,159,160,163,164,168,170,174,178,182,187,191,193,211,212,214,216,222,236,237,239,240,242,247,249,252,253,255,256,257,259,261,263},
{4,8,10,11,14,16,20,23,24,25,27,28,30,31,33,40,42,44,45,49,50,51,52,54,55,56,60,62,64,66,69,72,76,77,78,79,80,81,84,85,87,88,93,94,96,98,99,103,105,106,110,114,117,120,122,124,125,131,133,135,137,138,139,140,141,146,151,154,155,158,162,165,172,173,174,177,178,179,181,182,185,187,190,191,193,195,197,198,199,200,201,202,205,206,208,211,212,214,216,219,220,224,227,231,232,234,236,237,238,240,241,243,245,247,249,252,254,260,262,263,269,271},
{1,2,7,9,11,17,20,21,24,26,28,32,39,40,41,51,53,59,60,66,67,72,76,78,79,80,87,94,96,99,103,106,107,108,110,111,113,114,116,117,119,120,123,124,125,127,128,130,134,136,137,139,144,149,152,154,160,162,163,164,166,173,176,178,179,185,186,190,192,193,196,199,201,202,203,205,208,209,211,213,215,220,224,225,229,231,233,234,235,238,241,242,244,245,246,251,252,254,255,256,257,259,260,265,268,269,270,271},
{3,5,6,8,12,13,14,20,22,24,25,27,29,30,33,34,35,39,41,45,48,53,55,61,62,65,67,68,71,73,77,78,79,82,83,84,85,86,88,99,100,102,103,105,110,118,120,129,131,134,137,139,148,151,154,155,159,161,165,169,170,171,173,175,177,179,184,186,190,193,194,196,201,204,207,209,211,222,224,227,228,231,233,240,242,244,250,253,254,255,256,258,260,262,265,267,269,272},
{3,5,6,7,8,10,12,14,18,22,27,34,36,37,38,39,41,44,46,47,49,54,55,57,59,60,62,63,65,66,67,68,70,74,76,78,80,82,88,89,93,94,98,101,102,104,105,106,108,110,113,115,116,117,119,122,124,125,131,133,134,135,138,139,141,144,148,150,161,165,168,170,177,178,180,181,184,185,187,189,190,191,194,202,204,211,212,213,217,218,219,220,223,234,235,237,239,240,241,247,248,251,252,254,257,262,266,269},
{2,3,6,10,14,15,19,23,25,29,30,31,32,33,34,36,38,40,41,46,48,51,53,55,56,58,61,64,68,69,70,74,78,79,84,85,86,87,93,95,96,99,100,104,106,107,115,116,117,118,119,123,128,132,139,141,142,144,146,147,149,150,152,156,160,164,165,166,171,173,176,179,180,183,186,187,191,192,194,198,204,206,209,211,212,213,215,217,221,223,225,226,230,234,236,238,242,243,244,250,254,258,259,260,262,263,267,268,272},
{1,3,9,10,12,13,15,19,21,24,25,26,27,29,32,35,40,43,47,53,55,57,59,60,61,62,64,67,68,70,71,72,73,76,77,80,94,96,99,102,103,105,107,109,110,111,116,117,121,122,123,127,128,129,131,132,136,139,140,143,144,146,148,150,151,153,155,156,157,159,160,161,164,165,166,167,169,170,173,175,176,177,178,179,181,182,187,191,194,196,197,198,199,202,203,204,205,206,207,213,215,217,219,221,228,229,230,231,232,238,239,246,247,248,250,255,262,263,266,270,272,274,276,280,281,282,283,285,286},
{3,4,7,8,17,21,27,29,30,31,32,35,39,40,46,49,52,53,59,60,61,63,68,69,71,72,74,75,77,82,85,87,88,91,92,96,98,101,103,104,107,108,109,111,115,117,119,122,123,124,125,128,129,130,131,134,135,137,142,149,152,154,155,158,165,171,173,182,183,187,188,191,194,195,202,211,221,223,227,229,231,237,241,244,247,249,250,252,257,258,269,270,271,273,277,279,280,292,293},
{4,5,7,9,10,13,17,21,26,28,31,32,37,38,39,40,41,42,45,46,49,52,56,61,62,65,66,67,73,74,78,81,82,84,87,91,101,102,108,109,112,116,119,122,124,127,129,133,134,136,139,140,144,149,150,153,154,156,168,169,170,172,173,175,177,178,183,184,186,191,192,194,196,197,199,201,202,205,206,212,221,230,232,233,240,241,242,244,245,251,255,259,260,261,262,263,267,271,272,277,278,279,282,283,287,293},
{1,3,5,6,14,17,19,20,21,22,24,28,30,31,32,33,39,40,41,42,43,44,47,51,56,59,60,62,65,71,72,76,77,78,79,80,82,83,84,85,87,92,95,96,97,98,101,102,104,105,107,110,113,114,116,120,123,131,133,137,138,141,145,147,149,156,161,162,170,172,174,176,180,181,184,187,190,192,194,195,201,202,204,207,210,213,217,218,221,222,227,230,231,233,235,241,244,246,247,248,249,252,253,256,258,259,260,261,263,264,272,274,282,284,286,287,288,290,293,294},
{1,4,7,9,10,12,13,16,20,22,23,27,29,30,31,32,36,37,38,39,42,43,45,48,50,52,53,54,58,60,61,62,64,66,74,75,80,83,85,87,89,91,94,97,99,102,106,110,111,114,116,117,119,125,126,128,130,132,136,142,143,145,147,149,150,153,157,160,163,166,167,169,170,171,174,175,177,179,181,183,185,189,191,198,200,203,206,212,214,215,217,218,220,224,230,232,239,250,252,257,260,261,263,264,265,266,268,270,273,276,278,279,280,282,283,290,294},
{1,8,9,12,18,23,25,27,28,29,32,34,38,39,40,41,45,49,54,55,56,61,66,69,73,77,78,79,81,82,85,86,87,88,89,98,99,100,101,102,104,105,113,118,120,121,123,131,132,133,136,141,142,144,145,146,147,149,150,152,153,154,162,165,172,174,176,178,180,181,183,194,195,196,197,199,200,201,203,204,207,213,215,216,217,228,229,231,233,234,235,237,238,240,247,248,249,251,258,260,261,263,265,266,270,271,272,273,275,280,282,285,286,287,292,293},
{1,2,4,5,6,7,10,13,14,15,16,17,18,19,20,21,23,25,29,31,36,37,39,42,43,44,50,51,52,54,56,57,59,60,61,72,73,78,79,83,86,88,89,94,96,99,102,103,105,110,111,112,114,116,118,119,120,124,125,126,129,130,133,137,140,143,147,148,153,155,156,157,158,159,161,162,163,164,167,170,175,179,182,183,184,185,186,188,189,190,191,194,197,200,203,205,206,208,210,211,212,214,215,219,222,226,228,229,231,233,234,243,244,245,247,250,255,256,257,259,260,261,262,263,267,269,271,273,276,277,278,279,280,284,287,288,290,292,294},
{1,3,4,5,6,12,14,15,18,19,20,22,26,27,28,32,35,37,39,40,46,48,49,50,52,54,57,66,70,72,76,90,93,98,102,108,110,112,113,114,115,116,117,120,123,124,125,126,128,131,132,133,134,135,140,142,148,153,155,157,165,167,172,177,178,179,184,188,190,193,197,206,207,208,211,213,214,215,216,218,224,228,230,234,235,236,237,239,241,242,251,253,256,257,263,266,267,269,272,273,275,278,285,286,288,290,291,292,294},
{3,4,5,6,8,11,13,15,16,18,21,26,36,40,41,45,48,54,56,61,63,65,66,67,70,73,76,83,86,89,91,92,93,95,97,98,99,103,104,108,109,111,113,114,115,119,120,123,124,128,129,130,136,138,139,140,143,148,154,156,158,161,162,165,166,167,169,170,171,172,175,177,181,182,183,186,187,188,189,193,195,196,202,206,207,208,210,212,213,216,217,218,219,220,221,224,226,230,232,236,239,241,247,248,249,255,258,259,263,267,271,276,278,282,284,288,290},
{2,3,8,11,12,14,15,16,17,26,28,31,32,36,37,40,42,43,44,48,49,51,54,57,58,68,74,75,76,78,80,82,84,90,94,96,98,105,108,109,110,112,114,115,116,118,119,120,122,123,126,128,129,133,136,138,140,146,155,160,161,164,165,168,169,171,173,174,175,179,181,183,184,185,186,187,191,195,196,198,202,207,214,215,216,218,219,220,225,226,229,230,231,232,233,237,238,241,242,243,246,251,253,255,256,257,258,262,266,270,272,273,283,285,286,288,289,290,291,292},
{3,6,7,8,11,14,15,22,25,31,34,35,44,45,48,49,51,52,54,56,59,60,61,62,63,66,69,71,73,76,79,80,82,83,84,87,92,94,95,96,99,100,101,102,104,105,108,109,114,116,117,120,122,123,129,130,131,132,134,135,138,139,140,141,143,145,153,156,157,160,161,162,163,167,170,171,173,174,176,180,181,184,187,191,193,194,195,197,198,204,206,207,212,215,216,217,218,219,220,223,230,231,232,236,239,241,243,244,247,251,252,259,262,263,264,265,269,270,271,272,274,276,281,284,294},
{1,2,3,6,7,8,12,14,16,21,31,36,38,42,44,46,49,52,53,54,55,57,59,60,61,68,70,72,74,75,83,86,91,92,97,98,100,101,102,104,105,107,108,109,111,112,114,115,117,118,119,120,128,129,130,131,132,134,138,144,147,148,150,151,152,154,155,156,157,158,160,171,172,177,180,181,183,185,191,192,193,195,203,205,206,208,211,212,214,215,218,220,227,233,234,237,242,246,248,249,254,256,261,262,266,272,276,277,278,281,282,289,290},
{1,2,4,5,14,15,17,18,20,25,26,28,29,34,36,37,38,39,42,45,46,47,48,50,51,55,57,61,62,63,65,66,73,78,83,85,87,88,89,90,94,97,99,102,104,105,111,120,124,125,128,129,132,133,135,138,139,148,155,161,163,165,166,167,168,171,175,176,177,179,181,182,183,187,191,193,196,197,200,201,205,206,207,212,213,215,216,219,221,223,226,233,235,238,239,241,242,243,245,246,251,252,259,261,262,269,271,273,274,276,278,279,280,281,282,283,291,293,294},
{1,2,3,8,10,11,15,16,21,26,27,30,31,33,34,36,38,40,41,43,51,54,57,58,59,60,65,66,70,73,74,80,83,84,90,91,94,98,101,103,104,105,107,110,113,117,121,123,125,126,128,131,132,135,140,142,148,149,151,152,153,156,158,162,164,166,168,169,172,173,174,175,177,179,181,184,188,191,196,197,199,200,201,204,206,209,210,212,213,215,216,217,225,226,233,235,236,237,238,243,254,259,260,263,264,265,271,272,276,280,281,282,284,285,288,289,290,294},
{7,8,11,17,20,23,24,25,27,29,32,34,35,38,39,40,41,42,46,48,49,53,57,61,62,63,64,67,70,72,73,77,78,86,87,89,104,113,116,118,120,124,130,132,136,138,141,143,147,151,153,155,156,160,161,162,164,165,172,174,175,177,179,186,188,190,192,193,195,196,203,205,206,209,211,212,213,215,217,219,225,226,229,230,233,235,241,245,251,253,255,256,259,265,266,267,270,274,275,277,280,281,284,286,287,289,292,293},
{3,4,6,7,11,12,14,15,17,18,21,22,24,28,31,32,33,34,35,37,39,43,44,47,49,52,55,56,57,61,62,65,68,74,76,77,78,79,80,81,82,83,84,87,92,94,96,97,107,110,111,112,113,117,118,119,120,122,123,126,128,130,131,132,133,138,139,140,141,145,148,150,152,156,163,167,171,172,173,174,175,179,184,185,189,190,191,193,194,195,196,197,209,210,215,217,219,220,221,223,225,226,228,229,230,231,233,234,235,236,239,240,243,244,247,250,253,254,255,256,263,265,269,273,275,278,279,281,282,284,285,286,287,288,289,290,291},
{1,5,6,8,10,12,13,15,18,19,20,26,28,31,33,47,48,51,57,60,61,63,65,66,67,73,74,75,77,79,81,83,84,87,88,99,106,107,112,113,115,117,118,119,120,123,125,126,127,128,132,134,135,137,140,142,151,153,155,160,168,169,170,172,173,175,177,178,187,191,192,194,196,201,206,208,209,211,214,215,216,217,221,223,225,226,228,229,232,234,236,239,241,242,244,246,248,252,253,254,258,259,260,263,265,266,268,269,272,274,276,278,279,281,282,286,289,290,292},
{2,3,6,8,10,12,13,14,15,16,17,18,23,24,25,28,29,31,32,33,34,37,41,45,46,48,59,61,74,82,85,87,91,92,94,95,100,101,104,107,112,115,118,119,120,123,127,130,131,136,141,145,146,149,151,160,162,163,165,166,167,172,173,174,180,181,188,189,192,194,198,204,207,208,209,211,212,213,215,217,218,225,228,233,236,242,245,246,247,249,253,254,258,259,260,261,268,273,275,276,277,278,289,291,293},
{3,4,6,8,11,12,13,16,20,21,24,25,26,27,29,30,38,45,46,47,48,49,50,51,54,55,60,62,63,67,69,71,72,73,75,78,80,82,85,86,90,93,97,99,105,107,109,110,111,114,117,119,120,124,125,127,128,129,130,131,133,134,137,139,140,142,145,147,151,152,155,156,157,159,160,164,168,169,170,171,172,174,176,180,181,184,186,187,191,195,197,202,203,205,206,208,211,212,213,214,215,218,219,220,221,223,224,225,227,228,230,235,237,241,242,246,249,252,253,254,256,257,258,261,266,267,268,270,272,279,284,286,287,289,292,293},
{3,4,5,6,7,8,9,13,19,23,26,29,30,34,35,38,40,41,43,44,46,51,53,54,55,66,69,70,71,73,74,75,76,78,83,86,88,89,91,93,95,96,98,99,103,104,107,108,109,112,113,114,116,117,118,119,122,123,124,128,130,132,134,140,141,148,150,151,152,159,163,166,169,170,173,175,176,177,178,180,185,186,188,189,190,193,195,197,201,203,206,207,208,211,212,216,220,223,225,228,231,236,237,239,241,246,248,249,250,251,254,263,265,266,270,271,275,277,278,279,280,282,289,290,293},
{3,5,7,10,12,15,18,25,28,29,35,37,40,43,44,46,47,50,52,54,56,57,59,60,63,64,65,66,67,68,69,70,71,73,78,79,81,82,85,86,87,88,90,92,94,101,103,104,109,111,119,121,123,127,129,136,137,138,139,142,143,144,147,149,150,151,152,154,156,159,160,161,162,166,167,168,170,172,175,176,178,182,184,185,186,189,192,193,195,198,201,203,204,206,208,209,211,212,213,215,228,232,233,234,235,237,238,239,241,242,245,249,254,256,258,260,274,275,276,280,285,288,291,294},
{2,9,10,13,17,18,19,21,22,23,28,30,31,32,33,36,37,38,40,45,47,48,49,51,52,54,57,60,61,62,66,72,78,79,80,82,91,93,96,97,98,99,101,106,107,110,112,115,116,120,121,122,124,127,128,129,132,142,145,146,147,149,150,152,153,155,156,157,158,159,162,166,168,169,170,171,172,173,174,176,179,181,183,184,187,188,190,191,192,193,198,200,203,205,207,210,213,214,220,221,222,226,232,233,236,238,239,240,241,242,243,244,245,246,247,248,258,263,264,265,267,269,270,273,274,275,276,277,278,282,283,285,286,293,294},
{3,4,6,8,12,17,18,20,21,22,23,25,30,31,33,41,44,46,52,58,60,61,62,63,65,66,67,71,72,76,82,84,85,86,87,88,93,94,102,105,106,108,111,114,122,126,128,129,131,132,134,136,140,141,145,148,149,151,154,157,160,163,164,168,170,172,173,178,179,183,188,190,192,195,197,198,202,204,206,207,210,212,213,214,218,222,223,225,227,228,232,235,237,238,243,254,255,256,260,262,264,267,268,269,271,272,273,279,281,282,283,284,287},
{1,2,3,5,6,9,13,14,17,18,19,23,24,29,31,33,35,36,39,41,47,49,51,53,54,57,58,59,60,62,63,64,67,73,74,75,83,87,89,92,93,95,96,97,98,99,100,102,103,105,108,109,114,116,118,119,120,121,124,126,127,130,135,136,137,138,140,144,145,146,147,148,149,150,151,153,155,157,161,166,170,171,173,174,178,179,182,183,186,188,192,193,194,196,200,202,205,208,209,210,211,214,216,218,220,221,222,223,225,228,232,233,234,237,238,239,243,244,246,249,256,257,263,265,267,268,273,276,277,278,285,293,294,298,303,305,306,307,314,315,317},
{2,7,9,15,18,20,21,22,24,25,26,27,28,31,33,34,35,36,43,44,45,47,50,55,56,61,62,63,64,65,67,71,78,81,83,89,90,97,99,100,102,103,107,112,117,118,119,125,133,134,135,136,137,138,144,145,147,149,152,154,155,157,158,161,164,165,168,174,175,177,179,184,185,186,189,191,194,196,198,199,201,204,205,213,219,222,225,226,227,230,231,239,240,244,246,247,249,250,252,255,257,258,261,263,267,268,271,272,273,274,275,281,284,287,289,291,293,294,295,298,301,314,315,316},
{1,3,5,6,14,16,20,21,24,26,28,29,32,33,34,35,37,41,44,48,50,51,55,56,58,59,62,65,70,80,81,91,92,93,95,101,102,106,110,113,114,117,122,126,127,128,131,134,135,143,145,147,148,150,153,157,158,160,162,163,164,166,168,169,172,175,176,180,182,186,187,188,193,194,199,204,211,215,222,224,225,226,227,230,236,238,241,252,256,259,262,271,275,276,278,279,282,287,290,292,294,298,300,305,311,312,313},
{1,2,4,5,6,9,11,12,14,20,22,24,26,31,33,34,37,41,43,45,49,51,54,56,58,59,60,62,64,65,69,76,78,79,80,82,86,88,89,90,98,100,102,106,107,111,112,114,115,117,119,121,122,126,127,128,131,132,133,134,135,136,139,140,141,142,146,147,152,154,156,158,159,162,173,176,180,182,183,184,187,188,194,196,197,200,210,211,213,216,218,219,220,222,224,225,228,229,231,237,238,240,241,244,248,249,251,253,256,257,258,260,263,264,268,270,271,277,279,281,282,285,287,289,290,294,298,301,303,307,309,310,312,313,317},
{5,6,8,9,10,11,12,17,20,29,30,32,33,34,35,36,39,40,42,44,46,47,49,50,51,52,53,56,57,60,61,62,67,68,71,76,78,79,81,82,84,86,89,90,92,96,97,98,101,104,105,108,109,115,117,118,125,126,129,133,138,143,148,149,151,153,155,156,157,158,162,164,165,166,167,170,173,179,180,182,189,193,194,203,211,217,220,225,227,228,231,233,234,235,239,241,244,250,253,254,258,264,265,266,267,268,269,272,273,274,280,284,286,290,291,295,299,302,303,306,307,308,314,315,317},
{2,6,7,11,12,20,26,27,29,30,36,39,41,42,43,44,48,53,54,56,58,66,67,69,71,73,74,76,80,82,83,86,87,88,92,95,96,99,103,112,115,117,118,123,126,128,129,130,131,133,134,135,137,139,140,143,144,145,146,149,150,153,154,157,158,159,160,162,163,164,167,171,174,176,178,179,180,184,186,188,191,192,194,195,196,201,204,205,209,212,214,215,217,222,226,228,232,237,238,240,241,243,244,248,257,261,262,263,265,267,269,271,272,273,277,281,282,283,284,285,286,290,296,297,300,303,305,309,311,312,313,315},
{1,2,3,4,5,7,11,14,16,17,18,20,22,27,34,35,39,40,41,43,47,48,49,50,54,58,62,63,67,69,72,78,80,83,90,91,93,95,98,101,102,107,110,111,114,117,118,119,121,124,126,127,128,131,133,134,135,138,141,144,145,147,148,149,152,153,154,160,162,165,166,168,170,173,174,176,182,183,188,192,197,200,201,203,205,208,209,210,212,217,218,219,223,225,226,229,230,233,238,242,244,246,248,252,256,257,259,262,263,267,271,273,275,276,278,280,283,284,286,287,288,289,292,294,297,303,307,308,312,313,315,317},
{2,3,4,5,6,8,9,16,18,19,24,26,29,32,33,34,35,36,38,39,44,46,47,49,50,51,53,59,64,65,68,69,71,72,74,76,77,78,79,88,89,92,93,94,100,101,107,110,113,115,121,125,128,130,131,132,133,137,139,141,142,145,146,148,151,152,157,162,163,168,169,170,172,176,179,181,183,187,188,189,190,191,192,193,194,195,198,207,208,210,214,217,218,219,221,222,225,226,227,231,235,236,237,239,240,242,245,247,250,251,255,260,262,263,265,267,268,270,271,272,277,279,280,282,283,284,287,288,290,291,295,296,297,299,301,305,306,307,309,311,312,313},
{2,3,5,8,10,14,16,17,22,26,27,29,30,31,33,36,37,38,39,40,41,44,48,61,64,66,73,77,78,79,86,87,90,91,93,95,101,102,107,109,110,111,114,115,116,118,119,123,128,129,130,131,133,138,141,145,147,148,153,154,155,160,162,165,170,176,177,178,183,185,186,187,189,192,193,201,202,209,211,215,219,220,222,223,226,227,229,235,242,243,246,249,250,251,253,256,257,259,262,263,264,272,273,275,280,282,285,286,297,299,302,312,313},
{2,6,7,10,11,22,25,26,27,34,37,42,45,53,59,62,63,70,71,74,78,82,83,84,86,87,88,92,94,96,99,104,107,108,112,113,114,115,116,120,121,122,123,124,125,126,127,128,129,130,131,136,138,139,144,147,148,150,155,157,158,163,165,170,173,175,176,179,180,182,184,188,191,195,197,198,199,200,201,202,204,207,209,210,212,214,215,217,218,219,223,230,234,236,239,240,243,251,252,253,254,257,258,263,266,268,269,273,280,282,284,286,289,292,293,297,299,300,302,305,314},
{1,2,4,5,6,8,9,13,15,16,17,20,25,26,27,28,35,36,40,42,43,46,48,51,53,58,62,70,73,76,79,80,82,83,86,90,98,99,102,106,108,109,110,113,114,120,124,127,129,130,132,134,136,143,148,151,153,154,155,156,157,158,159,161,162,164,170,177,179,180,184,187,189,190,194,195,200,201,204,206,208,211,213,215,219,220,221,224,226,230,231,232,234,235,239,240,245,248,249,251,253,254,255,256,258,262,266,268,270,272,274,275,278,279,281,284,285,291,296,300,301,304,308,310,312,314,315,316},
{5,7,10,11,12,13,15,16,17,18,25,29,35,37,42,43,45,46,49,54,57,64,65,69,72,75,76,80,82,84,90,94,95,96,99,102,105,107,112,114,115,117,118,119,121,123,128,130,132,133,136,139,141,142,146,147,148,154,155,157,158,163,164,168,170,171,172,176,179,180,181,183,184,185,187,188,194,195,197,199,210,216,218,220,221,222,227,228,231,232,233,236,242,244,249,253,255,257,259,263,267,268,269,270,271,275,276,277,280,281,282,284,287,289,295,296,297,298,301,304,306,309,310,316},
{1,2,4,6,9,11,16,17,19,20,21,23,24,30,31,33,37,40,50,52,54,56,57,60,62,63,67,68,69,71,72,73,74,76,82,83,88,91,92,93,96,98,99,102,109,117,118,120,121,122,125,126,127,128,131,132,135,136,137,143,145,146,149,150,155,156,158,159,160,163,164,165,166,168,169,170,171,173,174,175,176,179,180,181,183,184,185,189,191,193,195,197,199,201,202,205,207,212,216,222,223,226,229,237,240,244,245,247,248,249,251,252,253,258,259,260,266,267,270,272,278,280,281,283,287,288,289,290,292,294,295,299,300,305,308,311,316,317},
{1,2,4,7,9,13,25,28,29,31,32,33,39,44,45,47,51,52,53,55,60,62,64,71,73,75,78,84,86,88,89,95,97,99,100,101,102,104,107,109,111,116,120,122,123,128,132,133,134,142,144,145,153,157,164,166,169,171,174,177,179,180,181,183,186,188,189,191,193,196,200,201,202,207,208,209,216,217,218,222,230,232,233,235,237,240,241,245,254,256,261,263,267,268,269,270,275,277,279,280,281,283,284,285,288,292,293,294,296,297,298,299,303,305,308,309,314,316},
{1,2,4,8,11,13,17,21,25,26,27,30,32,34,35,36,38,44,45,47,48,51,52,55,56,57,65,66,67,68,71,72,74,78,81,88,89,92,97,105,106,108,110,111,112,113,114,118,120,123,125,130,132,133,134,135,136,138,139,140,146,147,153,154,155,164,169,172,178,184,186,188,196,197,198,203,204,212,214,218,222,224,225,227,231,232,236,243,245,246,247,248,249,251,257,260,263,264,265,266,267,268,269,271,272,273,276,278,279,281,282,288,289,292,293,294,295,297,299,303,304,309,313,315,316},
{5,19,20,21,22,23,29,31,32,33,37,39,40,45,46,48,49,51,52,55,57,58,59,61,63,73,75,80,82,83,84,86,88,93,95,96,100,101,105,106,107,109,110,113,116,118,132,138,139,140,142,143,146,147,155,158,159,162,166,170,171,174,182,183,184,189,190,192,196,198,200,203,204,205,207,209,211,212,214,215,216,217,218,220,225,231,235,238,243,244,245,247,249,259,263,264,267,268,269,272,275,276,277,279,281,288,298,301,302,303,304,306,307,309,311,313,315,316},
{1,2,7,8,12,13,14,15,17,18,19,24,29,30,31,32,46,50,52,53,55,58,59,60,61,63,67,68,69,70,71,73,77,78,79,81,82,85,88,91,92,93,94,97,98,99,100,102,112,113,114,117,119,121,126,129,133,134,137,138,139,145,147,148,150,151,152,154,156,157,162,163,177,179,183,184,185,187,189,190,191,192,194,196,199,201,202,206,207,209,211,214,217,220,221,223,226,227,228,229,231,233,235,236,237,248,252,254,261,262,266,267,268,269,274,276,278,280,284,286,288,289,292,297,302,306,307,311,313,316,317},
{1,4,5,6,7,9,11,13,14,15,16,18,21,24,25,26,35,37,41,44,46,55,56,59,60,61,65,67,68,74,75,77,78,79,81,85,87,90,99,100,101,102,106,108,109,110,111,114,115,116,117,118,120,123,127,131,134,136,137,138,140,141,143,144,145,149,152,158,161,164,167,170,172,173,176,177,180,186,191,194,195,197,199,202,209,211,214,220,222,225,228,230,231,233,234,236,240,245,247,250,251,252,256,260,263,265,266,272,278,282,285,288,291,292,294,296,297,298,304,305,314},
{1,2,5,6,8,11,14,16,28,29,30,31,34,35,37,38,39,42,43,44,50,51,52,53,54,56,58,63,65,66,69,70,76,77,79,84,85,88,91,92,93,94,97,98,101,104,106,107,111,119,122,124,125,127,129,130,131,135,137,140,141,143,145,148,150,151,152,153,154,155,156,157,158,162,163,164,166,167,168,171,175,176,179,181,192,193,197,198,207,209,210,214,221,222,226,227,229,231,239,240,248,251,252,253,255,256,257,259,263,266,269,272,273,276,278,280,282,286,295,297,298,300,302,305,306,308,309,310,313,315,317},
{2,8,12,14,18,20,24,28,31,35,38,39,40,41,42,43,52,56,59,60,62,71,73,76,77,78,87,88,89,90,92,93,94,96,97,99,100,104,106,107,110,111,115,116,117,121,124,127,129,130,131,134,136,138,141,143,145,147,148,149,151,156,165,166,167,170,171,173,174,176,178,180,184,190,192,196,199,200,201,202,206,207,208,211,216,217,218,219,220,223,225,226,227,228,231,232,244,246,247,248,249,253,259,261,262,266,271,274,277,280,281,284,287,289,290,291,299,300,303,304,305,308,309,313,314,315,317},
{2,6,9,11,15,16,19,25,26,27,31,33,35,38,40,44,47,54,55,63,64,66,67,68,69,73,78,79,83,84,87,91,93,98,99,101,106,107,111,119,122,127,130,137,141,145,147,148,149,152,153,154,157,161,162,165,169,171,172,174,179,182,186,188,190,192,193,194,196,198,200,201,202,203,209,213,215,220,221,224,225,226,228,230,233,234,235,239,240,241,248,250,251,254,261,264,265,267,270,272,273,275,276,279,280,281,297,298,300,307,308,310,312,316},
{11,14,15,16,17,18,25,28,30,32,33,36,38,42,44,46,48,51,52,53,56,59,61,63,67,68,73,74,79,81,82,83,90,94,105,108,112,115,119,121,122,123,125,126,128,131,134,138,139,140,144,146,150,151,153,154,155,160,167,170,171,176,179,180,184,185,187,188,191,194,195,196,197,202,206,207,210,212,214,215,219,223,224,228,229,238,241,242,250,251,252,254,256,260,261,262,263,264,265,270,273,274,279,284,285,287,289,293,296,297,298,300,302,304,305,307,308,309,312,316},
{7,10,12,13,15,16,23,25,28,29,30,31,33,37,38,41,42,43,45,46,48,49,50,53,54,56,59,61,63,65,67,69,72,74,76,79,81,90,92,93,96,97,102,106,107,108,117,124,125,129,132,134,135,139,140,141,142,145,149,150,151,152,153,154,156,158,159,161,163,166,168,169,170,171,174,178,180,182,183,190,192,195,196,199,201,202,204,206,209,210,214,215,216,220,222,229,232,233,240,243,246,247,248,249,254,255,257,258,260,262,263,271,275,277,278,284,287,288,291,293,295,298,302,304,306,308,310,316,317,318,319,320,323,325,326,327,329,330,331,333,334,335,337},
{4,5,6,7,16,20,23,28,33,34,41,42,43,47,48,49,50,53,54,59,60,61,63,64,67,68,70,76,77,80,82,83,87,91,94,95,96,98,99,100,108,110,112,113,114,117,119,125,129,130,131,144,148,149,152,153,154,155,161,162,163,166,169,170,171,172,173,176,177,178,179,181,182,184,193,195,196,198,199,200,202,206,207,208,209,212,216,217,223,226,228,230,232,236,237,241,245,246,248,251,256,257,259,260,261,265,266,267,270,271,272,274,276,279,281,283,288,292,294,298,299,302,303,311,313,314,315,320,321,322,323,326,329,330,332,334,338},
{1,7,9,14,15,16,19,21,24,28,30,36,38,41,42,44,48,49,50,51,52,53,58,59,61,63,68,70,72,75,79,80,82,87,88,90,91,96,100,103,105,107,110,113,115,123,124,125,133,134,135,138,140,141,142,146,148,149,151,153,154,157,165,166,168,169,171,175,177,183,184,185,186,188,190,193,197,198,201,202,203,207,210,211,212,213,215,220,223,224,225,230,232,233,237,244,246,247,248,249,255,258,262,263,265,267,268,270,271,277,278,279,280,285,288,293,295,296,301,302,303,304,307,308,309,310,311,312,315,318,320,321,322,324,327,328,337},
{7,8,11,15,17,18,21,22,28,30,33,34,35,39,40,41,42,51,52,53,54,56,57,58,62,65,67,70,71,73,74,75,80,83,85,86,88,90,91,93,94,95,96,98,102,104,105,106,107,108,111,113,121,123,126,132,133,137,143,144,145,147,150,151,153,154,155,156,158,161,163,164,166,168,169,171,174,178,182,185,186,190,195,196,197,199,200,212,216,217,220,222,223,226,233,234,235,237,240,241,243,244,245,247,250,251,252,253,255,274,277,278,281,282,285,297,298,299,300,302,303,310,312,313,316,320,323,326,330,332,334,336,337,338},
{6,7,13,14,15,16,19,25,29,36,38,41,42,44,46,47,50,51,52,59,60,70,71,72,73,78,79,80,82,84,85,86,99,103,105,106,107,109,111,123,125,128,131,132,133,139,140,142,144,145,147,150,151,154,155,159,160,161,162,166,167,169,170,172,174,176,177,180,181,183,186,187,188,189,191,192,195,197,199,200,201,211,216,217,220,221,223,227,230,232,233,240,241,242,247,251,263,264,265,266,269,270,274,275,278,282,287,292,295,300,302,303,310,315,319,320,323,325,329,330,335,336},
{1,4,6,7,10,13,17,21,25,35,37,40,44,46,48,51,52,53,59,61,62,64,68,70,76,77,78,81,84,85,86,87,89,93,96,103,105,106,108,113,114,115,116,118,120,122,123,126,132,138,140,146,147,148,149,152,154,155,158,159,167,168,170,171,173,177,178,186,187,189,192,195,196,198,199,204,205,206,208,210,212,215,219,221,222,223,224,225,226,230,231,233,237,239,240,242,243,244,248,251,253,255,259,261,262,265,266,268,270,271,275,276,281,284,285,289,291,292,295,297,302,309,310,314,317,324,325,327,330,331,334,337},
{2,6,9,12,20,21,24,32,33,34,37,39,41,42,49,51,53,55,61,63,66,67,76,78,80,81,86,90,91,92,93,95,101,103,104,106,108,109,111,112,116,117,121,125,130,132,134,136,137,138,140,142,144,145,147,148,154,157,158,160,161,162,167,168,174,176,177,180,183,185,187,188,189,190,193,197,198,200,202,204,205,206,208,214,215,219,220,222,223,225,228,232,233,236,239,240,241,244,247,248,250,251,252,253,255,256,260,265,267,275,276,277,278,284,285,288,289,290,297,302,307,310,311,314,316,317,321,322,325,327,328,331,332,338},
{2,3,4,11,13,18,22,24,28,30,31,34,39,41,45,49,54,55,56,57,65,68,70,75,78,79,80,81,84,87,90,92,93,101,105,106,109,111,112,114,115,117,118,121,122,126,130,134,137,150,151,152,153,156,157,164,165,166,167,169,171,172,174,175,179,181,182,183,185,189,190,191,193,194,195,197,199,202,203,205,206,208,209,219,221,222,224,225,227,228,230,231,232,235,240,241,246,249,250,251,252,254,255,256,257,259,260,263,272,273,274,276,277,282,284,287,294,297,300,301,303,308,311,312,315,320,322,325,328,329,330,331,332,335,336,337,339},
{2,6,7,11,13,16,24,26,27,28,29,40,43,44,48,53,54,56,59,60,61,67,71,72,76,78,82,83,84,89,90,94,97,98,100,101,102,103,105,112,113,115,118,122,124,132,133,144,146,148,149,151,158,162,165,166,167,168,169,175,176,178,179,180,186,187,188,190,191,195,196,204,207,208,210,211,212,215,216,219,222,224,225,230,231,233,238,239,242,244,250,251,254,255,259,261,262,263,266,269,271,273,276,279,280,284,286,287,288,290,293,296,299,300,303,304,306,308,314,315,316,318,319,320,321,322,323,326,327,330,333,335,336,337},
{5,6,10,13,14,16,17,20,22,26,28,31,32,33,35,39,40,41,44,45,47,52,53,55,57,58,59,62,63,64,66,70,72,73,74,76,77,79,83,84,87,90,92,94,95,96,97,99,100,101,104,108,112,113,118,119,122,125,128,131,132,135,137,140,141,142,143,144,145,147,149,152,154,155,156,157,160,162,169,170,172,175,179,180,181,183,187,188,189,197,198,201,202,203,207,208,209,213,215,217,218,219,221,224,225,231,232,235,236,237,238,240,247,254,258,261,262,263,265,266,267,271,275,277,278,284,286,287,289,290,291,298,300,304,305,309,310,311,312,313,314,316,322,327,329,331,333,334},
{1,5,9,11,14,15,17,19,21,23,24,26,27,28,29,30,43,46,53,54,56,57,59,60,61,62,63,66,67,72,85,86,88,92,97,100,104,105,107,114,117,120,121,122,125,126,135,136,137,138,141,143,146,148,153,155,157,159,160,161,163,175,176,180,182,185,189,192,198,202,203,207,210,211,212,213,220,221,225,228,229,230,232,233,237,242,243,247,250,253,257,261,264,265,266,267,268,269,270,272,274,275,276,277,278,279,280,288,293,294,302,304,307,308,310,311,312,313,317,321,325,328,329,332,337},
{2,6,7,8,10,11,16,21,25,27,28,29,30,37,41,50,52,53,56,57,63,66,70,72,73,74,75,79,81,85,86,87,89,90,92,97,104,105,106,109,114,116,118,120,121,127,132,133,138,139,140,142,145,146,153,154,157,159,161,162,163,167,171,172,175,182,185,188,189,191,192,194,195,196,201,203,205,209,211,212,215,216,219,221,223,228,229,231,234,237,244,245,246,248,255,259,260,268,269,270,274,275,278,283,285,286,289,290,294,296,302,304,307,315,317,320,321,326,328,329,336,338,339},
{1,2,4,6,11,12,13,16,18,19,22,24,25,26,27,32,33,34,37,39,40,42,43,46,51,52,55,56,58,59,64,65,67,68,69,73,74,77,80,81,82,84,87,100,101,104,108,110,112,114,120,122,123,125,131,132,133,134,137,139,140,142,145,149,153,157,160,165,167,168,169,170,171,174,175,177,179,180,182,183,184,185,186,190,191,193,194,197,203,204,205,206,207,211,212,213,214,221,226,227,230,232,233,238,239,242,243,245,246,247,251,253,254,256,258,259,261,264,265,266,271,278,279,285,290,291,296,299,302,304,305,307,316,317,320,321,324,326,327,329,330,331,334},
{1,2,3,4,5,7,9,10,11,12,15,20,21,22,23,26,30,32,41,42,45,46,49,52,57,61,62,65,66,71,74,75,77,79,83,84,85,86,88,91,92,93,97,98,102,103,105,107,109,117,124,125,126,131,132,134,136,138,139,141,142,145,149,150,154,157,158,162,163,165,167,168,169,172,176,177,179,183,184,186,187,188,189,194,195,198,199,201,203,205,206,208,211,212,214,215,219,223,226,228,232,233,234,236,239,241,245,246,248,251,255,258,259,261,262,263,269,273,275,276,278,279,285,286,290,293,295,298,302,303,304,305,307,308,309,311,312,317,318,322,324,329,330,334,337,339},
{3,4,5,7,11,19,20,23,26,29,30,31,32,35,38,42,45,49,50,57,58,60,61,63,74,78,81,83,86,88,89,91,92,96,97,98,99,102,105,106,113,117,118,121,122,124,128,131,133,135,137,139,143,144,145,150,151,156,157,159,160,162,163,166,167,170,172,173,174,177,179,180,181,183,184,185,187,188,197,198,200,203,205,207,212,214,215,217,219,221,224,225,226,234,235,237,241,243,245,246,247,249,261,263,264,268,269,273,276,277,278,279,285,287,290,296,297,303,309,310,312,313,316,317,322,323,326,328,332,335,336,339},
{1,4,5,6,8,10,12,13,14,16,18,23,24,25,28,35,39,41,42,45,47,50,51,53,54,57,63,64,67,68,69,75,79,80,84,90,102,103,107,112,113,114,116,119,120,122,124,125,127,128,131,133,134,139,140,141,144,145,150,151,152,155,156,158,160,162,163,166,168,173,177,178,179,181,182,188,189,191,192,193,194,196,203,205,209,210,213,218,220,224,225,229,230,233,234,235,242,244,249,253,254,260,262,263,264,265,267,269,273,274,275,276,278,281,282,287,288,289,290,291,292,294,303,304,306,307,308,313,317,322,327,328,332,335},
{2,3,8,11,13,14,16,18,19,20,21,26,29,30,35,36,37,38,39,40,41,42,46,47,51,54,55,56,57,58,59,62,63,65,70,71,72,73,74,75,81,84,87,89,91,94,104,106,108,110,111,112,120,121,123,124,126,131,132,134,135,137,139,140,141,142,144,145,147,148,149,150,153,156,158,159,162,163,165,166,168,171,172,176,178,180,183,185,187,191,192,194,196,197,198,201,202,204,205,209,211,212,215,216,217,219,220,225,226,227,229,233,235,238,239,242,245,247,250,251,254,257,259,261,262,264,265,266,271,272,274,276,278,283,285,287,289,292,293,294,296,303,304,311,313,314,316,317,322,323,327,328,336,338,339},
{4,5,7,11,14,18,19,20,21,24,28,30,31,36,42,43,44,48,49,55,58,68,70,71,73,74,76,78,82,83,89,90,94,97,98,99,100,101,103,104,105,109,115,117,121,122,126,127,128,132,133,139,143,144,145,146,157,158,160,163,165,166,167,176,181,183,184,185,186,189,190,191,195,197,201,203,204,205,207,213,215,219,220,222,223,224,225,226,227,230,231,232,233,234,235,236,240,241,243,244,247,249,251,252,254,256,260,263,267,273,276,281,284,289,290,292,293,294,296,298,302,305,307,312,315,317,318,324,329,330,332,336,337,339},
{1,2,3,4,8,10,11,12,14,15,19,22,23,25,26,30,31,32,33,35,38,39,40,48,59,62,74,78,79,80,81,85,87,91,94,96,98,100,101,107,108,109,110,112,113,114,115,118,121,125,127,128,129,130,132,133,135,136,137,139,140,142,144,145,150,152,154,157,158,162,164,165,171,172,175,176,177,179,180,184,186,190,195,197,199,203,204,206,207,210,215,216,223,225,227,229,233,235,239,244,246,247,248,250,252,253,255,258,261,264,266,274,276,277,278,279,280,286,288,289,291,300,307,308,312,313,317,319,323,324,325,326,328,329,330,333,339},
{2,5,8,9,10,11,18,19,24,26,27,28,29,32,34,35,36,37,38,39,40,42,43,44,45,46,48,51,52,57,58,67,70,72,73,76,77,79,81,85,93,98,100,102,105,108,110,111,112,116,117,122,124,125,127,133,134,136,138,139,141,149,150,151,154,156,165,166,168,169,172,177,178,180,182,184,185,188,189,190,193,197,198,199,201,205,211,215,216,219,220,222,228,229,232,235,238,240,245,247,251,256,258,260,261,263,274,275,276,283,284,285,286,287,288,295,296,300,302,304,305,307,311,313,315,316,317,322,327,329,330,331,333,336,339},
{1,2,3,10,13,15,17,21,23,25,26,27,36,41,45,50,58,59,63,66,68,70,71,72,73,74,75,76,79,81,86,87,90,91,93,96,98,101,102,103,106,107,108,109,110,111,113,115,119,120,127,130,131,134,135,140,142,146,148,154,155,156,158,162,163,165,166,169,172,173,181,183,185,186,187,190,193,197,198,201,203,208,212,219,221,222,223,225,226,228,231,233,238,240,242,243,244,248,258,260,262,263,265,266,267,268,271,274,279,283,284,286,287,289,290,291,292,293,294,299,300,301,304,305,306,308,311,313,314,315,317,319,320,324,325,327,328,329,331,334,335,336,338},
{1,3,5,7,8,12,14,15,17,19,24,27,29,31,33,36,37,42,43,46,50,53,58,64,65,67,68,72,73,75,81,84,93,94,95,96,99,100,103,107,110,111,113,117,124,126,133,135,139,141,145,146,148,150,157,159,172,173,180,182,187,188,189,190,192,193,196,200,201,203,205,211,212,215,216,219,222,229,231,232,234,235,237,241,242,243,245,249,252,254,255,257,261,262,263,264,268,269,271,272,273,276,277,279,281,285,288,289,292,293,297,299,306,308,309,310,315,321,323,326,329,330,334,335,336,339},
{1,4,5,8,13,14,19,20,21,24,25,26,29,30,32,33,40,43,52,54,57,60,61,62,63,64,67,69,71,73,74,75,78,79,81,82,83,84,88,90,91,95,102,103,105,107,109,111,112,115,118,119,123,124,126,129,131,133,136,141,143,144,146,147,149,150,152,153,156,158,162,169,173,174,176,178,179,180,181,183,185,186,195,198,200,202,206,215,219,220,221,225,226,231,232,236,237,239,240,241,242,245,246,247,248,250,252,253,258,259,263,264,267,271,272,274,276,287,288,290,292,300,302,303,304,306,307,308,311,314,317,318,321,324,328,332,334,335,339,341,343,347,350,351,355,356,357,359,360,361},
{9,12,15,16,20,21,23,27,30,32,33,35,36,37,40,42,45,48,51,52,53,55,56,58,59,60,63,64,66,67,69,75,78,80,81,86,88,90,94,97,101,102,107,110,112,114,115,122,128,132,135,136,137,138,142,144,148,150,151,153,156,158,159,160,162,164,165,168,170,173,176,178,187,190,191,195,196,197,199,201,206,207,208,209,211,213,216,217,220,222,225,227,228,230,233,235,236,237,238,239,250,253,254,257,259,264,272,274,276,278,279,282,285,288,291,292,293,294,295,297,299,302,304,305,307,308,309,310,312,315,325,329,330,333,334,335,337,341,342,347,349,353,358,361},
{1,6,8,9,10,11,14,15,16,17,19,21,22,23,24,25,26,27,28,29,32,33,36,40,41,42,44,45,47,51,54,57,58,61,63,71,73,75,77,78,82,85,86,96,97,98,105,111,113,120,124,125,126,129,130,133,136,138,142,145,146,148,149,154,156,160,169,172,173,174,175,181,183,184,185,186,189,190,195,202,203,204,206,207,208,212,213,214,215,217,220,226,234,237,238,239,240,241,242,245,246,250,251,252,254,258,262,265,266,268,276,287,289,293,295,296,306,307,308,312,317,318,320,321,322,325,327,328,338,339,340,342,345,346,347,351,354,361},
{11,14,16,23,24,27,32,34,35,39,41,42,44,46,47,50,54,56,64,69,73,75,76,79,80,81,82,83,88,93,94,95,99,102,110,112,116,118,120,121,122,128,133,134,136,140,142,143,146,149,152,156,157,159,162,166,168,169,171,175,179,180,181,182,183,184,186,190,193,199,202,204,207,208,209,210,211,213,214,216,218,219,221,223,225,227,228,231,235,240,248,249,250,251,252,254,256,257,258,268,271,274,275,278,279,282,284,286,288,289,294,295,299,300,301,304,305,308,313,314,316,319,323,324,333,335,337,338,339,340,342,344,351,355,357,359},
{3,5,6,12,14,15,16,17,18,19,20,21,22,23,26,28,30,32,33,35,37,42,43,44,47,52,53,55,56,57,61,67,68,70,71,72,73,74,77,78,80,82,83,84,90,93,94,96,98,101,102,103,104,105,115,117,118,121,123,126,127,129,133,134,135,138,139,141,143,144,148,149,151,158,160,161,162,166,174,177,181,183,186,187,189,191,192,193,202,205,206,208,209,210,215,219,220,221,223,224,225,226,229,235,240,241,243,245,246,250,252,254,257,267,271,273,274,279,283,285,287,290,291,296,302,305,307,308,309,312,317,320,321,323,327,328,331,335,338,341,342,343,344,345,346,347,348,352,354,357,358,361},
{1,4,6,8,12,13,15,17,18,19,29,30,32,35,37,42,44,47,52,53,54,55,59,60,63,67,68,70,71,72,74,75,76,77,78,81,83,84,86,88,91,92,93,94,96,98,99,100,103,108,110,111,116,117,118,119,120,122,126,127,130,131,138,140,142,143,149,151,153,157,159,161,164,165,168,170,171,173,176,177,179,180,182,191,192,195,196,199,202,204,206,207,208,210,222,224,225,231,234,235,236,237,243,245,246,248,251,253,254,257,258,259,261,262,265,268,271,275,276,280,282,284,287,288,291,292,293,300,303,308,311,312,314,321,324,325,326,331,332,334,335,339,340,344,346,350,351,352,354,356,360},
{7,9,10,11,14,16,22,24,25,26,29,30,31,35,38,39,40,44,45,47,49,50,55,56,57,58,62,65,69,70,73,78,93,95,96,98,100,101,105,106,108,112,114,115,118,119,121,123,124,128,129,130,134,135,136,144,145,147,149,150,151,152,154,157,159,166,170,173,177,178,179,182,184,185,186,187,189,190,191,192,193,196,204,212,213,214,222,223,228,233,234,236,238,240,241,243,247,250,253,255,256,259,261,262,263,264,265,267,269,270,274,276,277,281,285,295,300,306,308,309,310,313,315,316,320,322,324,327,330,331,333,335,337,338,340,342,343,345,347,349,353,357,358,359},
{2,6,11,15,17,23,28,29,32,36,37,40,41,42,45,46,47,49,50,52,54,56,61,64,66,69,70,71,73,79,80,82,83,85,86,91,92,94,96,99,100,101,106,107,109,110,113,114,119,121,122,123,124,133,134,135,136,137,144,146,150,152,157,160,163,164,167,168,169,170,174,178,179,181,182,186,187,189,191,194,195,196,199,201,202,206,210,215,219,220,223,225,227,228,231,232,233,234,238,239,243,244,249,254,256,257,262,264,267,268,272,274,276,277,284,295,296,297,299,300,301,302,303,304,305,306,307,308,313,314,315,319,321,326,329,331,334,335,336,337,338,339,340,341,343,344,351,353,355,356,358,361},
{2,4,5,7,9,10,12,13,14,16,17,19,22,28,30,32,40,44,54,59,65,66,67,75,80,83,88,91,94,98,99,100,101,103,104,105,107,110,114,115,118,121,123,125,126,127,128,139,140,143,145,148,151,152,153,155,156,160,161,163,165,168,175,177,179,183,184,186,189,191,194,198,201,202,207,210,211,213,214,217,218,220,221,227,235,241,242,243,245,246,247,250,251,252,255,256,257,259,260,261,262,263,266,267,274,276,278,280,285,286,287,289,290,291,295,296,303,304,308,314,315,318,323,324,325,326,331,332,333,334,337,339,340,341,348,351,352,359,360,361},
{1,2,4,5,7,10,11,12,13,16,18,19,20,22,30,31,33,36,38,39,40,48,51,55,57,66,68,69,72,75,76,80,84,88,90,93,95,98,99,101,103,104,107,108,109,111,112,117,118,122,126,128,131,133,145,149,150,151,152,155,156,158,161,164,165,166,168,170,172,175,176,177,179,180,183,185,189,190,192,197,199,200,203,204,207,210,213,215,218,221,222,223,230,232,235,242,245,250,251,253,255,259,260,261,263,265,268,271,277,278,284,285,290,294,296,297,300,301,302,303,304,305,306,308,309,310,311,314,316,321,326,333,335,341,342,350,352,353,357,360,361},
{1,2,6,11,12,14,17,18,23,28,31,33,34,35,38,40,41,43,50,51,52,58,59,61,62,64,65,67,70,71,75,77,80,82,84,85,86,88,90,92,96,98,103,107,108,109,112,114,115,118,119,121,126,127,128,132,133,137,139,140,145,146,148,154,156,157,159,160,166,167,169,170,171,172,173,174,176,177,182,184,185,189,196,201,205,208,210,213,214,215,216,220,222,224,226,228,230,231,232,236,238,239,240,243,244,246,247,248,253,255,257,261,263,268,269,273,274,275,277,279,281,287,298,300,304,305,308,310,314,326,327,330,332,333,335,338,339,341,343,344,345,352,353,354,355,358,360},
{1,5,7,8,16,17,19,25,26,27,29,35,36,40,43,45,46,48,51,55,57,58,61,62,63,65,66,72,75,76,78,79,86,87,88,89,91,96,97,99,102,105,106,110,112,113,114,115,119,121,122,124,126,132,136,140,141,143,145,147,148,150,152,153,156,160,163,164,166,167,172,175,176,180,182,185,188,191,192,194,197,199,207,209,212,213,214,215,216,217,218,220,226,228,229,231,232,234,235,241,242,246,247,250,251,255,256,260,261,262,267,268,275,276,280,282,284,285,287,289,292,295,296,302,304,305,307,312,316,317,320,327,328,332,334,335,336,338,341,344,345,347,348,349,351,358,360,361},
{1,2,3,6,10,12,16,18,19,25,30,32,33,38,40,41,43,45,47,48,50,51,52,54,55,56,57,58,59,60,62,63,65,66,68,70,74,75,76,77,78,79,84,88,91,95,99,105,106,109,113,116,117,120,122,124,125,127,129,130,131,132,133,135,139,144,146,147,148,150,151,152,158,159,160,161,162,163,170,178,180,182,187,189,190,195,196,201,202,203,204,206,209,211,217,218,219,221,222,223,225,227,228,229,230,232,233,234,242,244,250,251,252,255,258,259,260,262,263,265,269,271,273,274,275,276,281,283,285,286,287,288,290,291,293,295,296,297,299,300,301,302,309,310,316,317,318,321,323,325,326,330,331,332,337,339,344,345,346,347,348,349,350,353,354,355,358,359},
{2,3,4,5,10,11,12,13,18,23,25,28,31,34,35,37,38,42,44,45,47,48,51,53,55,59,64,70,77,80,83,85,98,101,102,107,109,110,112,116,118,124,127,128,129,130,131,134,140,143,144,145,149,153,155,156,157,160,161,162,166,167,172,175,176,180,181,183,184,187,189,190,196,199,200,204,205,217,225,226,229,231,233,234,239,243,247,248,253,254,257,258,265,272,277,278,280,281,288,292,294,297,298,300,302,304,306,307,308,311,313,314,315,317,321,322,324,325,327,329,336,342,344,345,346,350,351,356,358,360},
{2,4,6,7,13,14,15,16,17,19,21,22,24,26,27,28,31,36,41,43,49,50,54,55,57,58,60,62,64,68,72,75,76,81,87,93,94,98,99,108,109,111,113,114,115,123,126,132,134,136,138,141,145,147,148,151,153,155,156,159,162,163,166,169,170,176,182,183,184,186,188,189,193,194,195,200,201,202,207,209,211,212,221,225,228,230,235,236,238,242,243,244,246,248,249,250,252,254,259,260,262,264,265,266,267,270,273,275,281,282,283,285,286,290,292,295,296,307,309,310,313,315,319,323,331,332,334,336,339,341,343,345,348,353,357},
{6,11,12,13,14,19,20,21,22,27,28,29,34,36,37,38,39,40,41,42,43,44,45,50,51,53,55,56,57,61,67,68,70,73,76,78,80,82,84,86,89,90,93,99,100,102,103,104,108,109,111,117,119,120,122,125,131,132,133,135,141,143,152,154,156,158,160,164,166,167,169,171,172,178,179,189,193,194,197,201,203,206,209,213,217,219,220,222,223,225,226,228,231,232,233,236,238,239,242,244,245,246,248,252,260,262,264,269,271,273,274,275,276,279,280,281,282,283,285,288,291,298,300,301,304,306,313,315,316,319,320,323,324,329,331,334,335,336,337,338,340,343,346,347,348,349,351,352,354,355},
{2,3,6,7,10,11,14,16,17,18,19,22,23,24,26,27,31,33,35,37,41,44,47,48,53,54,55,56,58,62,63,64,66,69,70,71,74,76,79,81,82,84,85,87,88,89,92,95,96,97,98,104,105,112,113,115,117,121,124,125,127,128,133,135,137,138,144,147,149,150,153,154,160,170,172,174,175,176,177,182,184,187,188,190,197,198,199,202,203,205,207,209,210,213,216,217,224,225,226,227,228,230,231,232,237,238,240,242,244,245,247,252,253,257,258,259,262,263,273,274,283,286,288,289,291,292,293,300,301,303,304,306,307,308,311,314,315,316,317,320,322,323,324,327,328,332,337,338,341,343,344,349,359},
{2,7,9,10,11,14,15,19,21,28,29,38,39,44,47,48,51,56,57,62,63,64,65,72,74,79,80,87,88,91,92,93,98,100,102,104,105,107,108,112,113,115,117,118,119,120,121,123,124,128,131,132,135,136,137,139,140,145,147,151,155,156,158,164,165,166,168,169,171,174,176,179,180,181,184,189,190,191,194,195,199,202,207,211,212,215,220,221,222,223,224,226,230,234,235,237,240,242,250,254,259,265,273,276,279,282,290,295,297,302,304,309,310,311,312,314,319,325,331,335,339,340,341,343,347,348,354,358,359},
{3,5,7,8,12,13,14,15,18,19,22,24,25,28,30,32,36,39,40,42,43,48,49,54,55,57,58,61,64,67,71,76,77,78,80,81,88,90,92,97,106,107,109,114,116,117,118,122,123,124,127,130,132,145,146,147,149,151,153,160,161,162,163,165,166,169,170,176,179,181,185,186,187,188,190,191,197,203,204,205,210,212,214,216,217,218,220,221,224,226,227,230,232,235,238,239,240,242,243,244,245,247,248,250,251,256,258,260,267,275,276,277,279,280,282,283,286,287,290,291,292,293,297,301,303,304,305,306,309,313,315,316,318,321,322,323,332,333,336,340,341,344,348,350,352,357,361},
{2,3,4,5,6,7,8,9,19,26,31,33,35,39,40,41,42,43,44,47,49,51,52,53,59,60,61,63,65,68,71,72,77,78,80,82,85,87,91,92,93,96,98,99,100,102,103,104,105,106,109,110,111,112,114,117,120,125,128,130,131,136,137,142,146,147,148,150,154,158,161,166,168,169,170,172,173,177,179,183,184,185,186,190,192,193,195,196,198,200,201,204,205,206,207,208,212,214,215,221,225,227,228,229,230,233,236,243,244,247,251,252,254,263,264,273,274,275,283,287,289,296,298,303,306,309,312,313,317,318,320,324,326,328,329,330,331,339,341,342,351,352,354,355,360,361},
{1,2,6,7,9,13,14,16,17,21,23,25,26,27,28,29,32,34,36,37,43,45,46,47,54,55,56,58,59,60,62,63,64,65,67,69,72,75,77,81,82,83,84,85,87,92,93,94,95,105,106,107,108,110,112,113,116,117,118,119,121,123,124,130,132,133,136,137,139,144,146,148,150,153,157,159,160,161,164,165,166,168,170,173,174,177,179,182,185,187,188,190,191,193,194,196,198,200,208,211,215,216,217,218,226,227,229,230,237,238,241,243,244,245,246,247,254,255,256,258,261,266,267,269,270,272,274,276,277,280,282,283,287,289,294,298,307,308,309,310,311,316,317,318,323,326,329,331,333,334,335,336,337,340,344,345,346,347,350,352,353,354,356,357},
{1,3,5,9,12,13,15,18,31,33,36,37,43,44,45,51,53,58,59,60,61,63,64,65,68,70,75,76,80,81,82,86,90,91,92,95,97,98,104,106,111,112,114,121,122,126,127,129,132,139,142,146,149,151,152,154,156,157,161,164,165,168,169,172,173,176,179,180,183,184,188,189,191,192,195,200,203,207,217,219,220,222,223,224,227,228,229,230,232,233,234,237,240,241,242,244,248,255,257,264,265,267,268,270,271,272,278,283,286,290,291,294,296,297,300,303,304,307,308,309,312,313,316,320,321,324,325,335,336,337,338,339,346,347,350,351,355,356,359,360},
{2,4,5,6,7,11,14,17,18,20,21,26,32,33,36,38,40,41,44,49,50,52,56,57,60,61,63,69,70,72,74,75,78,81,86,87,88,91,92,95,98,99,100,102,103,109,110,114,117,119,121,124,126,127,128,131,132,133,134,136,138,141,145,151,153,154,158,163,164,165,168,169,175,181,191,195,197,198,199,200,202,205,207,208,210,212,217,218,219,220,227,229,233,234,237,239,240,243,244,245,247,248,250,253,257,258,264,268,270,272,275,277,278,279,280,281,282,285,287,288,289,290,293,294,300,301,302,310,314,317,318,319,330,331,336,347,357,358,359,360,365,370,371,372,378,379},
{1,4,8,9,11,13,14,15,17,18,21,22,23,26,27,28,31,34,38,39,42,48,49,50,55,59,60,61,62,63,64,71,72,74,75,77,79,80,81,82,84,87,88,89,91,92,95,97,98,100,102,103,111,112,114,116,120,122,123,124,126,128,133,139,140,141,142,143,145,147,149,151,156,157,163,166,167,169,175,176,179,181,183,187,190,191,192,194,195,196,198,199,200,201,202,207,208,209,212,213,215,216,222,223,224,228,230,231,232,233,236,238,239,241,244,245,248,256,257,259,260,261,264,265,269,272,273,276,278,279,280,287,288,289,290,292,294,296,297,301,302,304,306,308,310,311,315,317,320,321,322,324,329,330,333,335,336,338,339,348,350,352,354,356,360,361,365,366,367,368,370,371,373,374,376,379},
{4,13,14,15,23,26,31,32,34,35,37,40,44,46,49,50,56,59,64,67,71,72,73,74,76,77,79,81,82,85,90,92,93,96,97,98,99,100,102,103,106,108,109,114,115,118,119,124,125,127,130,137,138,141,143,146,148,151,153,156,161,162,168,172,173,179,180,181,182,183,184,186,188,190,191,192,194,195,198,199,200,203,204,206,207,213,219,221,235,236,237,238,240,241,244,246,247,248,250,251,252,253,254,258,259,261,264,271,272,273,276,277,283,285,286,295,296,297,298,299,301,303,311,314,315,316,318,319,320,322,323,324,325,326,327,336,337,343,347,349,350,353,354,359,362,369,370,374,376,377,378,380,382,383},
{2,4,7,9,10,11,14,15,16,18,19,20,22,24,26,28,33,35,39,43,44,45,46,47,49,51,53,62,63,65,69,70,71,73,74,76,77,79,82,85,86,89,91,102,103,106,107,108,109,113,114,118,120,125,126,128,132,133,136,138,140,141,142,145,157,158,159,160,162,163,164,169,170,171,172,174,176,179,186,187,188,189,192,193,199,202,204,205,206,207,209,211,213,214,218,220,223,226,227,236,239,240,241,242,244,245,246,247,248,249,251,256,258,259,260,264,268,270,271,274,275,277,281,284,286,287,288,289,292,294,297,300,305,316,323,328,334,337,340,342,343,344,346,348,349,352,353,354,355,359,360,367,373,378,382},
{2,4,6,7,11,12,13,14,15,16,19,20,21,23,25,31,36,38,42,45,46,53,54,55,57,60,64,68,73,75,77,78,79,81,83,84,87,90,91,93,94,95,96,103,106,109,110,114,115,118,122,124,125,129,131,132,136,137,139,141,143,148,150,154,155,156,160,162,163,166,169,170,172,177,178,179,182,183,184,186,188,191,193,197,198,200,202,208,209,218,221,222,223,225,226,229,237,240,242,244,252,253,255,256,261,263,265,268,269,272,273,276,277,278,279,282,283,285,286,288,292,293,296,298,299,303,304,305,306,310,311,313,314,315,316,317,318,319,320,321,322,323,327,328,332,336,344,347,354,355,357,359,363,367,370,373,374,375,377,380,382},
{1,4,9,10,11,14,15,17,26,28,29,32,33,36,38,49,53,60,61,65,68,69,71,72,75,76,78,79,81,87,90,102,107,108,110,111,112,113,117,126,129,132,134,136,138,143,145,152,153,156,158,159,160,162,163,167,168,171,178,179,183,186,187,191,193,195,197,200,202,204,205,206,207,211,220,222,223,225,226,227,234,236,237,238,239,240,241,242,243,244,246,248,249,250,256,260,263,267,270,274,276,279,282,284,286,290,293,302,303,304,308,313,317,319,321,325,326,331,334,335,337,344,345,346,348,351,352,353,354,355,359,363,365,366,368,372,373,376,378,379,381,383},
{4,5,7,9,10,14,16,17,24,28,31,34,35,37,38,42,43,44,45,47,49,54,58,59,65,69,70,71,76,77,81,82,88,90,93,96,101,105,106,107,109,114,115,119,120,125,126,132,135,137,138,139,140,142,143,144,149,154,160,162,165,169,170,172,174,177,191,193,194,195,198,199,203,205,209,211,213,214,215,216,218,219,220,221,222,224,225,226,228,231,232,234,235,241,246,248,252,253,256,259,261,265,267,281,283,288,290,291,293,294,295,296,304,305,307,308,309,310,315,317,321,322,326,329,330,333,334,335,336,341,344,356,357,361,364,365,366,369,370,374,376,381,383},
{7,14,19,20,25,27,30,31,34,36,38,39,48,49,50,56,60,62,71,72,73,77,87,88,91,95,97,98,99,101,102,103,107,108,110,111,115,116,118,125,130,131,133,135,136,139,140,146,148,153,154,155,158,161,165,168,170,175,177,178,179,183,184,185,187,191,193,198,201,203,206,213,214,216,217,224,227,229,230,231,235,238,239,240,241,243,247,253,254,255,257,258,259,261,264,266,270,273,276,277,278,279,284,286,288,289,290,293,295,296,297,299,302,303,304,308,312,315,316,317,319,320,321,322,323,325,332,339,343,348,349,353,355,356,363,364,366,367,370,372,375,379,380,382,383},
{2,4,10,11,13,16,20,26,33,37,42,43,44,55,56,61,63,66,69,72,74,75,76,79,83,84,87,88,92,93,95,97,100,101,102,108,109,111,112,113,115,117,118,122,125,126,128,129,131,132,134,137,138,139,141,143,144,146,154,157,162,165,166,167,170,176,178,179,180,181,182,185,187,194,196,207,211,215,216,217,220,221,224,226,228,231,233,234,235,236,239,241,242,245,248,249,251,253,256,257,258,262,263,267,269,270,277,279,280,283,286,287,288,290,291,293,295,299,300,301,302,305,306,307,308,309,311,317,318,319,322,325,327,332,333,337,346,347,350,364,368,369,370,371,372,373,376,380,383},
{1,2,4,6,7,8,11,13,14,15,16,17,19,20,21,24,25,27,30,32,34,35,37,43,44,51,58,62,64,66,68,72,76,77,78,81,88,94,95,96,97,99,101,102,103,104,105,106,107,108,109,112,113,115,117,119,120,122,123,124,126,128,132,135,137,138,141,142,144,145,146,148,154,158,159,164,165,167,169,171,172,174,175,178,180,182,183,184,187,189,192,193,194,196,197,198,199,200,202,204,208,209,211,212,213,215,219,224,225,227,228,229,232,235,238,243,244,249,254,258,259,264,265,267,269,274,277,278,280,281,284,285,286,287,289,291,295,297,301,305,306,307,308,310,311,313,314,318,320,321,324,326,327,328,332,338,339,340,341,343,344,346,352,359,363,365,366,367,370,372,373,374,375,377,379,380,383},
{8,11,15,22,26,43,47,56,57,59,60,63,70,74,75,79,82,85,87,89,91,94,95,103,106,113,115,119,120,122,126,128,129,130,131,143,144,145,148,150,151,155,157,158,164,166,168,169,172,173,175,177,179,181,185,187,188,193,196,198,201,204,211,215,216,218,219,220,222,224,229,234,236,237,238,240,241,242,243,247,248,251,256,257,260,261,262,264,265,268,269,271,279,282,283,284,287,292,293,297,298,300,301,304,306,307,309,313,318,319,320,321,326,329,331,339,340,344,347,348,353,357,358,361,362,363,365,366,367,369,370,373,374,375,378,379,381,382,383},
{1,2,4,8,9,12,13,15,16,23,24,25,28,31,32,36,39,41,42,49,54,55,56,58,59,64,65,67,70,71,72,73,74,80,83,84,85,89,92,95,98,99,101,104,106,107,109,111,112,115,116,119,120,121,128,131,133,134,136,143,145,146,147,148,149,151,152,153,154,156,161,162,163,166,167,169,171,178,179,182,184,188,192,194,198,204,207,209,210,211,213,215,219,224,227,230,233,234,237,239,241,242,244,245,246,248,251,256,257,259,260,264,265,273,282,283,284,285,286,288,290,293,294,295,297,298,304,307,308,309,310,312,313,320,322,323,324,327,331,332,333,334,337,345,346,350,352,353,354,355,356,361,368,372,376,378,380,383},
{2,3,4,5,8,16,25,28,35,36,38,40,44,46,51,54,57,61,64,65,69,72,76,82,88,89,90,91,93,94,101,102,104,107,108,109,111,116,118,119,120,133,137,146,147,148,149,150,151,153,156,158,161,162,165,166,169,170,171,174,175,177,183,184,190,191,193,195,196,198,199,202,203,205,207,209,217,221,223,224,225,226,227,230,232,236,238,239,240,241,242,244,245,246,249,251,255,259,260,262,263,264,267,268,270,271,273,274,276,277,278,280,281,287,289,291,293,294,301,302,307,309,312,315,316,318,319,323,329,334,336,339,342,343,350,351,353,359,360,361,367,368,370,372,373,375,379,380,383},
{2,4,6,8,9,10,13,15,17,20,24,37,38,42,43,46,47,50,54,55,58,60,62,63,64,66,67,68,69,70,71,74,76,80,81,83,84,87,89,91,92,93,94,98,99,100,107,111,112,114,115,117,119,123,125,126,127,129,131,134,135,138,140,141,143,144,145,146,147,159,161,162,163,166,167,168,170,172,174,175,177,180,181,182,187,193,198,199,205,206,208,217,222,224,226,227,228,229,230,231,234,235,240,243,248,250,252,254,255,256,257,260,261,262,265,267,271,273,276,277,278,279,280,281,284,285,286,289,298,299,303,305,314,316,322,323,326,328,329,330,331,333,337,347,348,349,351,354,355,356,360,362,363,368,374,375,376,379,382},
{4,5,6,14,15,21,24,25,29,34,37,38,41,43,44,45,47,53,56,57,61,64,66,70,71,72,75,76,81,82,83,84,85,86,87,89,90,94,98,102,109,110,112,114,115,122,124,126,131,132,133,134,138,141,143,147,148,149,150,154,159,161,167,169,170,172,175,176,183,184,186,187,190,191,199,200,201,203,204,205,207,211,214,215,219,222,223,231,234,235,239,241,242,243,246,247,248,251,253,258,266,267,269,270,271,272,275,278,279,281,283,286,287,290,295,296,297,301,306,309,313,317,321,324,326,328,329,330,333,337,340,344,348,349,356,359,360,364,367,371,374,375,383},
{7,8,11,12,13,14,16,18,20,21,22,24,26,27,28,29,31,32,34,37,38,40,43,44,50,51,53,55,56,59,66,67,79,80,81,83,84,85,86,89,95,98,104,111,112,115,117,119,121,128,130,131,132,133,137,138,142,143,145,148,149,150,154,155,157,160,161,163,165,166,167,172,176,177,178,179,181,185,188,192,195,196,197,198,203,209,210,212,213,214,215,216,218,220,222,223,224,226,227,228,230,231,232,233,235,240,241,247,249,250,251,253,255,261,262,266,267,270,273,277,281,283,286,287,288,292,294,296,299,306,307,309,310,318,320,324,325,327,333,337,339,342,345,346,347,350,353,354,355,358,359,360,361,365,366,368,369,370,373,374,377,379,380,382},
{1,3,6,10,12,14,15,18,20,21,25,27,28,30,32,39,42,43,45,48,50,53,58,59,70,71,74,83,85,87,88,89,90,91,92,93,95,98,101,103,105,106,107,110,112,116,117,118,121,124,128,129,130,131,136,137,140,141,144,148,150,157,160,163,164,168,174,180,182,183,188,189,190,191,192,193,196,199,200,201,203,204,207,208,209,211,212,213,217,218,219,224,226,229,231,232,248,250,251,252,253,254,257,258,262,263,264,266,268,269,270,273,275,276,284,286,287,288,289,291,296,298,299,300,304,305,308,309,314,316,320,325,326,327,334,335,337,339,341,343,344,348,352,354,355,356,359,360,362,369,371,374,379,380},
{2,3,4,7,9,10,14,15,18,19,21,22,24,25,26,27,29,30,32,33,34,35,37,42,48,50,51,54,57,58,59,61,62,64,67,68,69,70,71,73,74,75,78,81,82,89,91,95,96,98,100,102,103,105,110,111,113,115,120,129,130,134,135,137,140,144,147,148,149,150,151,152,155,166,168,171,173,178,179,180,186,187,188,190,195,198,201,204,208,210,213,217,220,227,228,233,235,241,244,248,250,253,255,258,259,260,275,278,282,283,285,287,288,294,296,297,298,300,301,304,305,307,314,315,317,319,321,323,324,327,333,334,335,337,340,341,342,346,347,349,351,354,359,360,362,363,365,368,369,372,373,375,376,381,383},
{2,4,5,7,8,13,15,18,20,23,25,26,31,32,35,36,41,45,47,49,50,52,54,57,58,60,63,71,73,78,79,81,82,83,88,90,91,94,99,109,110,111,113,115,117,120,123,126,127,129,132,133,137,138,140,141,143,144,145,150,151,152,155,156,159,161,163,165,168,169,171,174,175,176,180,181,188,189,191,193,194,199,200,201,205,206,207,208,213,215,219,226,227,232,233,235,238,240,242,243,248,249,252,255,256,257,258,264,268,271,273,277,279,280,281,282,286,287,288,291,294,295,301,304,307,309,312,318,320,322,323,325,326,331,335,339,341,343,352,353,358,359,361,363,364,365,370,371,373,375,376,378,381,383},
{1,3,4,7,8,9,15,16,18,20,21,27,28,31,39,40,43,46,47,49,51,52,53,55,56,59,60,62,69,70,80,81,83,84,96,97,98,100,101,104,105,109,114,121,124,128,129,131,132,133,136,138,139,142,144,147,148,151,154,156,157,158,161,164,168,169,171,172,173,174,175,176,177,178,180,181,183,192,193,194,196,200,202,204,206,209,210,211,212,214,217,220,231,232,233,234,237,238,239,240,242,243,244,250,255,258,259,260,261,262,263,267,269,270,272,273,274,278,279,282,284,287,288,290,291,300,301,303,304,306,308,317,318,322,324,328,329,334,335,337,340,343,348,350,351,353,356,357,365,367,368,369,372,374,375,377},
{13,16,17,18,20,24,27,30,31,32,33,36,43,44,53,56,62,64,69,72,78,80,83,84,86,93,96,100,101,106,107,112,115,116,119,121,126,130,131,132,134,135,138,140,141,149,150,154,155,157,158,164,165,169,171,174,175,176,179,182,193,194,202,205,206,208,209,210,211,212,213,215,217,218,220,223,225,230,233,234,236,237,241,243,244,246,248,251,258,259,261,263,271,273,277,279,280,281,283,284,286,287,290,292,298,303,305,307,311,315,320,321,323,324,326,327,331,332,337,343,347,349,352,356,359,360,361,366,367,368,370,371,375,377,382},
{1,2,4,6,15,16,18,21,23,24,30,32,35,40,45,47,48,49,51,57,63,64,67,72,73,77,78,79,81,83,84,89,93,98,102,103,107,108,110,114,115,116,120,121,124,127,131,138,140,143,149,150,154,155,158,161,165,166,168,169,171,172,176,178,179,180,181,183,186,187,190,191,198,199,201,202,204,205,207,209,212,213,215,216,217,218,220,223,226,227,228,229,230,231,234,236,237,242,243,246,247,248,252,253,255,259,262,263,265,266,270,271,272,273,276,281,283,285,286,288,291,294,295,302,303,304,307,310,311,315,319,323,324,325,328,330,331,332,339,341,343,344,345,351,353,355,356,357,360,363,367,370,379},
{3,7,10,12,14,18,19,21,22,23,24,32,33,34,38,53,56,57,58,60,61,64,65,66,68,69,70,71,72,75,84,86,89,90,92,94,95,98,100,103,105,106,110,111,116,122,123,124,126,128,130,131,132,135,137,138,139,141,146,150,153,159,161,162,163,166,168,171,172,176,182,183,186,187,192,194,195,200,201,202,206,211,212,215,217,219,221,223,225,233,234,237,239,241,244,246,249,252,253,258,259,260,261,262,263,264,266,267,268,270,274,275,277,284,287,289,295,296,299,300,304,305,306,309,312,314,317,319,322,324,329,330,332,334,335,340,342,344,345,347,350,351,352,353,355,357,358,362,364,365,367,369,370,372,376,378,380,381,382,386,387,388,390,394,399,401},
{2,4,7,16,18,22,25,26,30,31,33,43,48,49,51,52,54,56,60,62,64,65,67,69,71,72,77,78,79,88,93,94,95,96,99,102,104,108,109,110,111,113,118,120,122,123,124,128,129,131,134,135,140,142,144,149,150,152,153,157,158,163,164,167,170,171,179,180,181,182,185,188,191,193,197,201,202,205,206,207,212,213,214,218,220,228,231,235,239,241,246,248,250,251,253,257,258,261,267,268,269,270,271,274,276,282,283,284,285,286,287,289,290,299,302,305,306,310,314,317,320,324,327,328,330,331,332,333,338,342,343,346,348,352,353,354,357,361,364,374,375,376,377,380,381,382,383,388,390,393,396,397,398,399,400,403,404,405},
{3,6,7,8,10,12,14,16,19,24,26,27,28,31,34,37,41,49,50,52,53,55,56,61,69,72,73,74,77,80,82,84,85,87,90,97,99,102,103,114,120,121,123,126,127,130,132,137,138,140,142,143,147,149,150,154,157,158,161,166,168,178,180,184,185,186,190,191,192,194,200,202,206,212,215,219,220,221,226,228,229,230,233,235,243,245,246,248,249,253,256,257,259,260,263,264,267,268,269,272,273,277,278,282,286,289,290,293,295,296,298,303,304,305,306,308,312,313,316,317,323,326,332,334,336,341,343,345,346,348,349,350,352,356,359,360,361,368,371,372,373,375,378,380,381,383,385,387,393,400,403},
{1,5,11,13,15,18,20,23,26,30,32,34,40,47,54,57,58,59,60,61,64,68,69,70,71,74,79,84,85,87,89,94,96,100,102,103,105,107,109,111,114,115,121,122,127,128,131,132,134,144,147,148,149,150,151,152,156,159,160,164,165,171,172,175,177,179,181,184,187,191,193,194,196,197,202,205,208,210,211,213,214,215,218,220,226,227,228,231,233,234,237,243,244,245,246,247,249,250,251,255,256,258,261,264,270,271,281,282,285,287,289,290,291,294,295,297,299,300,303,306,307,308,310,311,312,314,320,322,323,325,331,332,333,336,338,340,345,346,347,349,350,351,354,356,357,358,362,363,367,368,371,373,375,376,380,383,386,387,388,390,393,394,395,397,399,400,402,403},
{1,2,4,8,10,13,16,20,21,31,33,36,38,40,41,42,45,46,47,50,52,53,57,60,65,66,68,75,77,82,83,85,86,87,88,89,92,94,98,99,100,103,106,108,110,113,114,115,117,119,120,121,122,123,126,127,128,129,130,131,132,140,144,148,159,160,162,168,169,172,176,177,185,186,187,190,194,197,198,199,201,203,206,207,212,220,222,223,226,228,229,235,237,241,246,247,249,253,256,257,260,261,262,264,268,269,271,273,277,281,282,286,287,288,293,295,296,299,302,306,307,308,311,313,314,316,318,323,330,335,336,338,342,345,346,351,352,353,354,355,356,358,359,360,364,365,369,370,374,379,381,382,384,385,387,389,390,393,395,398,399,401,404,405},
{1,2,5,7,15,19,22,23,27,28,34,38,41,45,46,47,48,51,53,57,58,63,64,69,72,76,77,78,82,84,87,88,90,91,92,94,97,99,101,105,106,109,112,117,121,122,125,126,127,129,130,132,138,141,145,151,153,154,155,160,162,165,167,169,171,172,174,175,176,185,186,189,191,192,196,199,202,203,204,211,212,213,217,218,220,222,223,226,230,233,234,236,240,248,250,251,258,264,265,269,271,272,277,279,281,283,285,289,291,292,295,302,309,311,313,314,318,323,326,328,332,334,335,336,337,338,341,345,347,356,359,360,362,365,367,371,375,376,381,382,383,386,389,390,396,401,402,403,405},
{1,2,5,6,12,13,14,15,16,17,19,20,23,25,26,33,34,35,37,38,39,46,54,56,57,59,60,63,64,65,67,68,76,77,79,80,87,88,91,95,98,100,107,111,115,119,121,124,126,130,133,140,141,148,154,155,156,158,159,164,166,167,169,173,183,186,187,192,194,195,196,197,199,201,202,203,205,209,210,215,220,221,222,223,226,227,230,239,240,242,244,245,247,250,251,254,255,257,261,262,265,268,269,270,272,276,277,279,282,284,285,286,288,289,290,293,295,296,299,302,304,305,311,314,316,320,322,323,327,329,330,331,333,336,340,341,343,345,351,352,353,359,360,361,363,364,369,370,373,379,382,384,385,386,388,389,392,395,396,400,402},
{1,8,9,12,18,20,21,23,24,26,28,30,32,34,37,38,43,47,48,51,52,54,57,62,65,71,72,73,74,75,78,83,85,86,92,94,95,97,98,105,110,112,117,120,122,125,126,129,132,134,135,137,138,140,144,146,149,152,157,158,162,164,167,176,179,180,181,184,185,189,191,194,198,199,200,202,203,204,208,212,214,215,216,217,221,222,224,225,226,233,235,239,240,241,243,244,246,248,254,257,258,259,260,261,267,268,269,270,271,272,275,278,279,283,284,285,286,291,293,294,295,296,297,300,301,305,307,309,318,320,321,327,328,329,331,332,333,337,339,348,350,351,352,353,355,356,358,362,366,368,369,372,374,378,381,385,390,391,395,400},
{1,4,6,7,9,14,17,21,24,25,30,37,40,42,45,47,48,51,52,54,60,62,63,66,67,69,70,74,76,77,80,84,87,88,89,91,95,96,103,104,108,120,121,123,124,130,132,134,136,137,138,139,140,141,142,146,147,148,149,151,154,156,157,159,161,163,164,167,168,171,172,177,179,180,183,184,185,186,190,193,196,198,202,203,204,205,206,207,208,209,210,212,219,222,224,225,226,228,231,232,237,239,240,241,244,247,249,250,253,254,257,258,263,264,268,269,276,281,288,290,292,293,294,296,298,299,300,301,304,305,306,308,318,319,320,323,324,326,328,333,334,335,338,344,345,346,349,351,361,364,369,370,371,374,378,379,386,387,392,394,395,398,400,403,404,405},
{1,2,6,7,8,10,13,14,15,16,19,20,21,23,25,26,31,32,34,35,36,37,41,45,46,48,49,51,54,56,57,59,60,61,62,64,65,66,67,69,73,75,77,80,81,92,95,101,102,104,105,106,107,108,110,111,112,117,118,120,121,122,127,128,133,134,135,138,141,143,146,148,149,151,152,154,156,157,162,167,169,170,174,176,178,181,185,188,190,191,192,194,197,198,199,201,203,208,210,219,220,221,222,225,227,233,236,238,239,246,247,249,252,254,255,259,261,265,266,267,268,269,271,274,275,278,279,282,284,288,289,298,301,304,305,306,307,309,317,319,322,326,327,331,336,340,347,351,355,357,358,364,370,372,376,378,380,383,385,387,388,389,390,391,393,394,398,399,400,401,402,403,405},
{1,4,10,12,13,19,23,24,30,31,32,40,42,43,45,46,51,53,56,59,60,61,63,67,73,77,81,85,88,89,91,92,94,99,102,104,106,107,111,114,115,116,120,125,128,129,130,131,132,133,145,147,148,149,150,157,158,159,160,161,164,166,169,170,171,172,175,176,178,179,181,182,183,184,186,187,189,193,194,196,199,200,207,210,217,219,220,223,224,226,227,228,229,232,233,235,236,239,240,242,246,247,253,257,259,260,261,264,273,277,280,285,286,288,289,290,294,295,296,303,305,307,309,314,315,316,322,325,329,333,334,346,350,352,353,355,356,359,362,365,368,370,371,372,376,380,381,382,385,389,392,394,397,398,400,401},
{6,7,8,9,10,11,12,13,24,25,26,27,29,30,33,38,39,43,46,49,50,51,57,59,61,62,63,66,67,70,71,73,76,79,80,82,83,86,88,90,94,97,105,109,110,112,113,115,116,117,121,126,128,133,134,135,138,140,142,143,145,151,155,157,158,163,170,171,172,173,175,176,178,180,187,190,191,193,194,197,201,202,205,207,211,215,216,218,219,220,223,224,227,229,234,235,237,238,239,249,254,263,264,266,268,271,273,274,276,278,280,282,293,296,305,306,307,308,313,314,318,320,321,325,326,329,337,339,341,344,348,351,352,353,355,356,357,361,363,365,367,369,370,372,374,376,378,379,381,382,383,385,389,391,392,394,396,397,398,400},
{1,3,6,7,18,19,20,23,24,27,32,35,36,37,40,45,47,48,52,53,55,56,59,61,62,65,67,69,70,75,79,81,83,84,85,89,90,92,94,97,101,102,103,104,105,106,115,116,118,121,123,124,127,129,132,136,138,139,142,149,151,153,154,160,164,166,169,172,177,178,182,183,184,190,193,195,199,204,205,206,210,211,213,215,222,225,227,229,231,233,234,235,236,237,240,241,242,247,248,250,251,253,254,255,256,257,258,259,261,264,267,270,274,276,278,281,282,283,284,285,291,293,296,300,302,306,309,312,313,317,318,322,323,327,334,336,337,342,343,346,347,351,353,355,360,361,363,365,366,367,372,373,377,380,381,389,391,392,399,401,402},
{7,9,12,14,15,17,19,20,23,25,28,29,33,35,40,41,45,46,49,54,56,57,58,62,65,66,67,72,73,75,77,80,84,85,91,93,94,95,97,102,108,109,113,117,118,119,120,121,122,123,129,132,133,134,138,139,142,145,146,149,151,157,159,160,161,162,164,165,168,172,173,178,180,182,183,185,200,201,204,207,214,216,217,219,220,221,223,230,231,237,240,243,244,245,247,250,255,256,260,265,268,271,272,275,276,277,282,283,284,285,286,287,289,291,292,296,298,299,301,302,303,306,308,312,316,320,323,326,335,336,337,338,339,342,343,346,350,351,352,355,358,363,364,366,370,375,376,377,380,387,390,392,393,395,396,398,399,401,405},
{4,5,6,9,10,11,14,15,17,21,26,28,36,37,44,45,48,50,51,55,56,60,61,62,63,65,67,69,70,74,75,76,77,78,80,81,83,85,86,87,89,91,92,102,103,105,107,110,111,113,116,120,121,122,124,126,132,138,139,140,143,145,146,147,149,153,157,159,160,162,166,168,170,171,172,174,175,176,179,180,183,186,187,194,195,201,203,205,207,209,210,212,213,216,217,220,221,222,227,229,230,233,235,239,241,243,250,252,255,257,258,260,264,266,267,268,269,270,271,272,273,274,275,280,281,283,284,288,292,294,297,299,300,301,302,304,306,309,310,313,314,319,320,321,323,324,329,333,334,336,337,339,344,345,347,355,363,366,367,373,375,377,381,386,390,391,393,395,397,400,402},
{1,2,4,6,7,9,10,11,12,15,16,17,19,20,24,26,28,32,36,37,43,46,47,48,52,58,59,60,62,67,68,69,72,73,76,79,82,84,85,89,92,95,98,102,110,111,113,118,119,120,121,127,128,131,132,133,135,143,146,148,149,152,160,163,167,168,169,170,171,173,175,177,179,181,184,190,194,195,198,200,207,208,211,213,214,218,219,223,226,231,233,234,236,237,241,243,246,247,248,249,252,253,256,258,259,261,262,263,265,271,272,275,277,281,282,285,287,290,293,295,297,298,301,307,311,312,314,315,317,320,323,326,327,328,330,335,339,341,345,346,347,351,352,355,356,361,365,367,368,369,370,371,376,377,378,381,384,385,387,392,394,397,401,404},
{2,6,7,8,9,10,15,17,19,22,26,29,37,41,43,45,47,48,49,51,53,54,55,57,59,61,63,71,72,73,75,80,81,86,90,91,94,95,106,109,110,116,117,121,123,128,131,133,134,135,137,140,142,144,148,150,154,156,159,160,162,163,164,165,168,170,171,175,176,177,178,179,184,185,186,187,188,190,192,194,197,203,205,207,210,213,220,222,225,229,231,234,238,241,243,244,245,248,252,253,254,255,257,258,261,262,266,271,275,278,279,280,281,293,294,297,299,301,302,303,304,305,306,308,315,317,327,328,332,336,339,342,344,345,346,347,348,354,357,358,359,362,368,369,372,373,376,384,385,386,388,391,397,402,403,404,405},
{2,4,7,13,14,15,20,21,22,25,26,28,32,34,38,39,42,44,45,46,54,56,65,66,72,74,75,76,79,82,83,90,91,93,105,106,107,109,110,111,112,116,118,121,123,126,127,128,129,130,131,133,136,137,140,142,143,144,145,146,147,150,151,155,158,160,164,165,166,169,170,171,172,174,178,186,188,195,196,199,202,203,207,209,210,215,219,221,222,223,225,226,229,231,233,234,237,238,239,241,243,244,245,246,247,248,251,253,255,256,259,261,264,265,266,268,270,274,275,277,283,287,288,289,290,294,297,298,300,302,303,305,307,309,314,316,319,321,323,325,335,338,340,342,344,345,347,348,353,354,355,359,360,361,362,364,370,376,379,381,382,383,384,385,386,389,390,393,394,396,397,403,404},
{5,6,7,11,13,17,21,22,27,28,32,33,35,36,46,47,48,54,58,60,61,62,63,68,69,70,72,73,75,76,78,80,81,82,83,84,85,89,90,93,94,96,104,107,108,109,111,113,114,118,119,121,123,126,132,133,135,141,145,146,148,149,151,155,157,159,162,171,172,174,177,182,184,189,190,196,198,199,202,204,208,209,210,212,213,214,216,217,220,225,228,229,233,234,241,244,247,250,258,263,266,267,268,270,272,274,279,281,282,283,285,286,289,290,292,293,294,296,297,298,299,303,304,306,307,308,311,312,313,315,316,321,324,327,329,332,337,338,339,341,342,344,348,353,355,358,359,360,363,365,369,370,371,373,375,378,381,382,384,386,388,389,390,391,392,397,398,402,405},
{2,4,5,8,10,12,13,14,20,28,30,31,33,38,39,44,46,50,54,55,56,63,64,71,77,79,88,89,91,97,100,101,112,116,119,121,123,126,127,128,129,131,133,134,137,138,139,140,143,144,147,148,149,151,152,156,158,161,162,164,169,170,172,175,176,177,181,182,183,187,191,193,194,195,197,199,201,210,212,214,215,223,224,225,230,234,235,237,238,240,241,242,244,250,252,259,262,269,271,272,273,274,280,283,286,289,297,299,301,302,309,314,315,316,319,320,322,324,325,327,333,334,335,339,340,342,344,348,350,352,354,356,359,362,366,367,371,372,373,376,378,382,388,400,402},
{2,3,8,13,14,15,16,18,24,28,31,37,38,39,42,43,46,48,49,50,54,61,63,68,73,78,80,84,87,90,93,94,96,99,109,112,113,115,117,118,119,120,122,124,136,142,144,145,146,147,149,151,153,155,159,165,166,167,168,170,173,177,180,181,183,186,194,195,196,198,199,206,208,209,210,211,212,213,214,216,219,220,223,224,229,230,234,237,242,251,253,254,256,258,261,262,266,267,269,270,272,273,278,285,286,291,292,297,304,306,307,308,309,314,315,322,323,328,329,331,333,334,336,341,342,345,346,349,350,351,355,356,357,361,363,367,371,372,373,374,375,376,379,380,383,384,387,388,391,392,393,399,405},
{1,4,8,9,13,14,15,16,18,19,22,24,30,31,33,37,39,40,42,45,46,47,48,59,61,63,64,65,69,70,72,74,75,76,78,81,84,87,92,94,99,100,101,104,111,114,115,116,120,121,122,123,127,128,130,134,135,137,138,139,146,150,151,153,154,158,162,167,168,170,174,179,180,182,186,187,190,191,193,194,195,196,198,202,203,204,214,217,225,226,228,230,233,236,239,240,242,255,260,261,263,268,269,270,272,276,277,278,279,283,284,285,291,295,297,299,300,302,305,311,312,313,315,322,332,333,334,338,340,343,352,353,358,361,363,366,368,372,382,386,392,393,394,403,404,409,411,415,419,424,426},
{1,2,5,9,11,12,16,17,26,31,34,36,37,38,43,47,49,50,58,59,61,62,63,64,65,69,71,76,78,79,80,81,83,84,85,87,91,93,94,96,99,100,102,107,108,110,111,114,120,121,123,125,128,132,133,135,136,138,139,140,141,143,150,151,152,153,154,157,158,162,163,164,167,169,170,173,176,178,179,181,183,185,187,188,192,201,203,207,208,210,211,212,216,217,222,228,234,244,246,247,253,254,255,258,262,263,265,267,271,274,275,277,281,282,284,285,289,292,293,294,295,303,306,308,309,312,313,315,316,317,322,327,329,330,335,337,342,346,348,350,354,362,364,365,366,367,370,377,378,383,385,386,387,388,392,399,400,404,408,410,411,415,416,417,420,423},
{1,4,7,8,10,11,14,15,20,23,28,34,38,39,41,46,47,48,49,54,55,56,58,59,64,65,66,67,68,69,73,74,75,78,82,83,84,87,89,90,91,92,94,101,112,122,125,131,133,139,140,145,147,151,153,156,157,160,165,170,174,178,181,184,185,189,191,194,197,201,203,205,208,211,212,213,214,215,218,223,224,228,229,230,233,234,235,239,241,242,245,246,251,254,255,258,259,263,264,266,268,271,279,286,288,289,291,294,298,302,304,305,306,309,310,311,315,316,319,324,329,332,334,338,339,341,344,345,349,351,356,358,359,360,361,362,365,367,370,371,372,375,379,381,383,385,386,388,390,405,407,410,412,413,415,417,418,419,422,425,426},
{1,5,7,8,9,13,15,17,18,19,20,22,27,28,31,36,40,42,49,55,56,59,60,65,68,69,71,72,75,77,78,80,81,84,89,95,96,99,100,102,109,110,111,112,113,114,115,116,117,119,129,130,131,132,134,139,143,146,147,149,150,152,154,155,160,162,168,169,170,174,183,190,192,197,199,203,204,211,212,213,218,222,224,225,226,229,234,236,237,241,245,246,247,248,250,259,261,264,266,268,270,273,274,276,277,278,279,280,282,283,284,287,289,290,291,293,294,297,298,301,303,307,314,315,317,320,321,322,329,331,332,335,336,339,340,345,346,348,350,356,357,358,359,360,367,369,371,373,374,375,376,377,378,381,383,384,385,387,388,390,393,396,397,398,399,403,407,408,409,413,414,418,423,424,426},
{1,2,6,7,9,11,12,14,17,20,21,22,28,32,33,38,44,48,51,55,56,61,62,63,69,71,72,74,75,77,78,81,83,86,93,96,97,98,99,105,114,121,129,131,132,135,136,142,145,148,159,160,162,168,169,170,171,173,174,177,178,179,182,184,185,193,195,196,197,199,200,201,205,210,211,212,213,214,215,216,219,222,228,230,235,237,238,240,241,242,244,248,249,252,253,262,268,272,276,277,278,282,288,291,294,295,297,299,302,304,305,310,311,318,323,324,329,331,336,337,338,339,343,344,345,346,348,349,352,354,357,364,371,375,377,378,381,382,383,385,386,388,390,391,394,397,398,399,400,401,406,407,408,411,412,413,415,419,420,421,422,425,426},
{1,2,10,13,14,18,22,25,27,30,33,34,35,37,38,44,46,51,58,60,61,62,63,64,65,66,68,69,70,71,74,75,79,81,82,84,86,87,91,96,98,99,100,103,104,106,108,109,115,116,118,119,121,122,123,124,125,126,127,129,136,137,143,145,146,152,154,155,162,165,168,169,170,171,173,175,176,177,179,183,184,185,187,190,192,196,197,198,199,200,213,221,222,224,225,227,235,236,237,243,247,249,250,253,258,259,261,262,264,266,270,273,274,276,278,283,284,285,287,290,304,305,308,310,312,314,318,319,321,324,329,332,334,336,337,338,340,341,343,345,347,351,352,354,360,362,363,364,365,367,369,370,372,373,374,378,381,382,391,392,395,398,401,403,404,408,411,412,414,415,420,421,423,426},
{5,6,10,12,13,15,16,17,20,21,22,24,26,27,28,29,33,34,35,36,39,42,45,53,54,60,61,63,64,69,70,71,73,74,77,79,80,84,87,89,94,95,96,97,102,103,105,108,110,111,112,116,119,122,123,125,126,127,129,136,137,139,140,142,144,145,146,147,149,150,153,155,156,158,160,161,162,163,166,167,171,175,176,178,179,186,192,198,203,207,208,210,214,217,222,226,227,233,234,236,237,239,243,245,247,249,254,255,258,260,267,268,272,275,282,283,287,289,292,296,297,298,303,304,305,311,315,316,317,320,322,323,326,327,330,331,334,335,336,337,342,346,347,348,350,356,357,361,364,366,371,375,376,377,380,383,385,391,395,397,398,400,402,403,405,407,408,412,413,418,421,425},
{2,4,6,9,13,14,19,28,31,34,35,38,39,40,43,44,52,53,55,56,57,60,64,67,68,70,71,73,81,83,87,92,93,96,97,99,100,104,105,106,109,110,111,112,114,116,118,119,121,124,127,129,130,132,134,137,140,141,145,146,149,152,156,157,162,163,166,169,170,171,175,176,177,183,188,189,195,196,199,202,205,206,207,208,214,223,227,228,229,231,232,233,234,235,238,239,240,245,246,249,250,257,258,264,265,269,272,275,277,280,281,286,288,291,292,297,298,300,304,305,308,314,317,322,323,326,327,331,334,337,339,340,341,342,344,346,347,354,359,360,367,368,369,371,373,374,378,380,381,383,384,387,388,390,391,393,394,397,398,401,403,408,410,412,416,418,419,422,423,424,425,426},
{1,3,5,6,8,12,21,22,24,25,27,29,34,35,37,39,41,46,48,50,59,61,68,69,72,73,76,78,79,84,85,86,88,90,91,92,94,96,98,99,100,101,104,106,109,116,120,129,130,135,136,142,143,148,149,153,154,155,157,161,168,169,170,171,173,175,182,183,185,188,191,194,198,201,202,204,205,208,209,210,212,214,215,222,223,224,229,234,236,237,241,244,247,248,249,250,251,253,254,258,261,264,265,266,267,273,276,278,280,281,283,286,288,293,296,297,298,302,303,305,306,308,309,311,314,316,317,323,325,326,330,332,335,340,341,342,344,345,346,347,350,354,355,356,358,364,365,369,370,373,375,377,380,383,384,385,388,391,397,400,407,408,410,414,415,416,420,421,423,424,425},
{3,11,12,13,15,16,21,22,23,24,25,26,31,34,38,39,41,44,46,48,51,53,55,56,58,59,61,64,66,71,74,77,79,80,81,83,89,90,91,92,94,95,98,100,101,105,108,109,113,114,116,119,124,125,127,128,130,133,136,139,142,143,144,146,156,158,159,161,162,163,164,167,169,170,171,174,181,184,185,187,188,189,190,194,198,201,205,206,210,215,216,218,220,227,229,233,234,235,237,238,240,244,245,247,249,250,253,254,256,260,261,264,268,270,273,276,280,282,283,284,287,291,292,294,297,299,300,302,304,305,310,311,319,321,322,324,325,330,333,334,336,339,346,348,349,350,354,357,358,360,365,366,368,370,372,373,375,383,385,388,391,394,397,401,402,403,404,420,423,424,426},
{2,4,5,7,14,17,20,25,27,29,31,38,44,45,46,51,54,57,60,61,62,64,66,67,68,69,71,73,75,77,80,81,84,87,88,91,92,99,104,107,110,111,118,119,120,121,123,124,126,128,129,130,133,135,136,138,141,142,143,144,145,146,147,149,153,154,155,156,158,160,167,170,171,172,180,181,185,188,189,190,192,196,198,199,201,203,205,208,209,211,213,216,219,224,227,228,232,233,236,237,241,243,247,249,253,254,258,259,261,262,268,269,271,274,279,280,283,286,288,291,292,294,296,299,301,302,304,306,308,309,311,312,314,318,320,321,322,326,329,331,333,335,337,338,341,343,345,348,349,350,352,354,355,356,359,362,363,364,366,367,369,375,376,377,379,383,390,391,392,395,399,400,402,404,406,407,413,415,416,417,418,420,421},
{5,9,11,12,15,17,21,24,25,27,28,29,36,39,42,46,50,51,52,53,56,58,59,61,62,63,69,70,75,81,82,86,87,91,92,93,94,104,105,109,111,112,115,116,118,121,122,123,124,126,130,131,132,134,135,136,137,139,140,142,144,148,151,154,155,156,160,162,165,167,168,172,173,174,175,178,182,184,189,190,192,193,195,196,198,200,204,207,209,210,211,212,213,214,216,218,222,224,227,228,229,232,235,236,237,241,244,245,248,251,252,254,256,257,259,260,262,263,265,269,271,273,274,279,285,292,293,294,295,296,297,300,301,305,306,307,310,311,315,316,317,319,320,324,326,327,328,330,331,332,333,334,338,342,343,345,346,347,349,350,352,355,360,364,369,372,377,379,382,383,385,387,388,391,396,398,401,409,415,418,419,424,425,426},
{4,5,8,9,15,19,20,22,23,24,25,27,30,31,34,35,39,43,46,47,50,51,52,53,56,58,60,62,63,65,66,69,71,72,75,76,79,82,84,87,89,91,93,96,98,99,100,102,103,105,108,109,115,116,117,118,120,121,124,126,132,134,136,137,140,142,147,155,157,162,163,164,168,172,173,175,177,182,184,187,190,193,196,198,203,204,206,210,211,213,216,217,220,222,224,228,229,230,232,234,238,246,247,250,257,259,260,262,265,266,268,274,280,283,291,292,293,294,295,297,302,303,309,310,311,314,317,318,319,320,324,326,329,331,333,334,335,338,339,340,343,344,346,349,350,354,359,365,368,372,373,374,376,377,379,381,385,390,397,402,405,407,408,409,410,411,413,415,418,419,421,422,424},
{2,3,7,8,12,16,18,24,28,29,30,34,35,37,38,40,43,44,47,51,55,56,57,58,63,64,68,69,72,75,79,81,82,91,92,94,99,102,103,107,108,109,110,112,117,118,125,131,135,140,141,143,145,148,154,155,156,157,159,163,171,173,175,179,181,182,183,184,187,189,192,200,202,203,205,206,207,209,210,211,214,220,222,226,228,230,232,242,246,247,253,261,267,268,269,271,272,273,279,280,282,283,285,286,291,295,296,299,301,303,308,311,315,317,319,320,322,325,329,331,334,336,339,340,343,344,346,357,363,366,370,371,372,373,376,378,379,383,386,388,393,396,400,402,403,404,405,409,412,415,419,420,421,424},
{4,11,13,14,18,22,25,26,32,33,36,38,39,40,41,43,44,45,46,48,51,52,56,58,61,63,64,65,66,68,70,71,73,78,79,81,82,91,98,103,111,113,115,117,118,121,123,124,125,126,127,129,132,135,137,138,140,144,145,148,149,151,154,159,160,161,163,166,170,173,176,179,181,185,187,192,197,204,205,206,210,213,217,220,221,222,224,229,234,237,238,243,244,246,247,248,251,253,254,260,265,267,268,272,273,276,280,281,282,283,285,287,288,291,292,293,296,298,299,305,307,309,311,312,313,320,321,322,323,325,329,330,332,333,334,335,340,342,343,344,347,348,352,353,357,362,364,365,366,367,368,373,375,379,384,388,389,392,403,412,416,417,418,419,420,422,424,426},
{11,22,23,25,28,30,35,36,38,41,43,47,49,50,52,54,56,57,58,65,67,73,74,77,80,82,83,84,88,89,93,94,95,96,97,103,106,107,108,111,113,115,116,119,120,122,124,125,127,134,137,140,142,144,149,150,152,153,154,156,160,162,163,166,176,178,180,182,184,185,186,188,190,191,196,197,199,203,204,205,207,208,210,211,215,217,220,221,224,229,230,231,234,240,242,246,251,255,257,258,261,262,278,283,284,286,289,290,292,293,303,304,310,312,315,316,317,324,326,327,328,330,331,334,335,339,340,347,349,356,358,359,360,363,366,367,368,369,373,377,378,381,382,385,387,390,392,394,395,398,399,402,404,405,408,409,413,415,420,421,422,425,426},
{6,8,11,12,16,21,22,23,24,30,34,37,38,39,41,45,47,50,54,58,59,62,68,69,70,75,76,77,80,81,82,83,85,91,92,97,98,102,103,104,106,110,111,114,116,121,123,127,128,130,132,133,137,140,143,144,146,147,148,149,152,153,155,156,162,163,164,170,171,174,176,178,179,180,183,185,186,190,193,197,199,201,207,212,213,217,219,223,224,229,230,236,237,238,239,240,243,244,248,250,251,254,255,256,259,260,261,264,266,268,269,272,273,274,277,279,283,284,285,286,290,291,292,293,294,298,299,309,311,314,316,317,318,320,324,325,326,332,333,337,341,344,346,348,353,354,355,358,359,365,367,369,377,383,384,387,389,394,396,399,400,401,404,406,409,411,412,417,418,423,426},
{1,7,10,15,16,17,19,23,24,25,26,27,32,33,34,37,41,42,43,45,53,63,65,66,73,74,75,80,81,82,83,85,86,87,90,92,100,101,106,109,110,112,116,117,122,123,127,128,131,132,133,135,140,142,144,145,148,155,156,160,161,168,170,173,175,176,178,179,181,182,183,185,186,189,192,194,201,209,212,223,226,232,234,235,238,241,242,244,246,247,250,252,255,258,259,261,262,263,264,265,266,268,270,272,278,280,281,282,288,290,292,295,296,297,299,301,302,303,304,306,310,311,312,313,316,317,321,322,323,324,325,326,329,330,332,335,340,342,343,345,346,349,351,353,354,359,364,367,369,370,376,378,381,382,384,388,389,390,393,396,399,402,403,404,405,406,407,411,413,416,417,420,425,426},
{4,8,9,10,13,14,20,24,25,28,30,32,33,36,37,42,45,48,55,57,60,63,64,66,72,73,74,77,79,80,82,85,86,88,90,91,95,96,97,101,103,104,105,106,108,109,111,115,123,127,129,131,134,138,139,141,142,145,146,149,152,165,166,167,171,173,174,178,189,193,194,196,197,198,199,200,208,209,216,218,227,229,236,237,238,245,247,248,250,251,252,253,255,256,260,264,268,270,271,272,274,279,280,282,283,289,292,294,299,300,301,302,303,305,307,308,311,315,318,323,327,331,332,333,334,341,343,346,349,351,352,353,355,358,359,363,370,371,372,377,380,382,383,388,389,390,398,400,405,406,410,411,416,420,422,426},
{4,5,7,8,10,11,13,17,27,31,32,35,36,39,54,57,59,60,65,67,69,72,73,74,75,78,81,87,88,89,91,93,98,100,103,105,107,112,113,114,115,117,120,121,123,125,127,131,139,140,141,143,144,145,146,150,153,158,160,163,165,169,171,175,176,179,181,182,185,193,195,198,200,201,202,204,205,206,210,211,213,215,216,217,218,221,222,223,225,233,235,236,238,244,245,248,249,250,253,255,256,259,261,264,266,267,271,274,276,278,279,280,284,286,294,296,297,301,302,304,305,306,311,312,314,315,316,321,322,323,327,329,338,339,340,345,352,353,356,357,359,362,367,368,370,374,378,382,388,389,391,397,400,401,405,407,408,409,412,416,420,423,426},
{5,10,14,17,19,20,21,22,23,25,28,29,32,34,35,43,45,50,54,56,59,60,62,63,64,65,71,74,76,77,78,80,88,90,91,93,96,97,98,99,100,102,103,106,108,109,113,114,115,117,118,120,123,128,130,137,141,144,148,158,160,161,162,166,168,173,175,178,179,181,184,186,187,188,190,191,195,198,201,205,207,211,212,213,214,215,217,218,227,230,231,232,234,236,238,243,244,247,250,251,255,261,266,270,272,275,278,281,284,285,288,289,290,292,293,294,296,298,299,304,305,308,309,317,324,326,327,328,329,330,332,334,338,343,344,350,351,354,357,358,362,363,364,365,368,370,378,381,382,384,394,395,397,398,400,402,406,407,413,417,419,421,425},
{8,10,15,18,19,20,21,22,23,24,25,27,28,31,34,41,45,46,47,50,52,55,56,60,63,64,65,67,68,71,72,73,74,76,78,81,82,83,88,92,94,100,103,104,105,106,110,113,115,118,122,124,126,127,128,130,131,134,136,138,141,142,144,147,149,153,154,156,157,158,162,166,170,172,175,179,181,182,184,185,186,187,189,190,191,197,199,204,206,208,213,215,216,217,222,223,225,226,231,233,234,235,240,241,243,244,246,248,254,256,257,261,265,267,270,272,273,276,277,278,281,282,283,284,285,288,290,296,298,299,303,304,305,314,315,316,320,323,324,325,327,331,335,336,339,340,342,344,351,352,355,356,357,358,363,368,370,372,374,376,382,384,387,388,393,395,396,400,401,403,404,410,412,413,416,418,420,421,425,426,429,430,432,433,439,442,443,445,446},
{3,8,9,10,18,20,21,26,29,31,32,35,46,50,51,53,55,62,65,68,69,71,73,81,82,84,85,86,87,88,90,91,92,93,98,101,102,103,104,105,106,108,112,113,117,118,121,122,123,127,128,129,130,136,140,142,144,145,150,151,161,165,166,167,169,172,173,174,177,178,180,181,186,188,193,194,197,199,202,204,205,209,210,212,214,215,216,217,219,222,223,224,230,231,232,235,243,244,246,248,249,250,251,252,253,255,258,260,262,266,267,275,278,283,290,291,294,295,296,297,299,300,304,305,307,308,311,317,321,325,326,328,329,330,331,334,335,336,338,339,341,349,350,354,358,359,365,371,375,376,381,382,383,385,389,394,395,397,399,400,401,407,411,413,414,416,417,420,423,425,428,429,432,435,440},
{7,9,11,12,13,14,17,20,22,28,30,32,33,35,38,45,46,49,51,55,56,59,60,62,63,64,65,68,70,71,84,87,93,95,98,100,101,107,108,109,116,119,121,123,124,125,130,131,132,133,134,135,139,141,142,143,144,146,148,149,151,153,154,157,158,162,166,168,170,174,177,179,182,184,185,187,188,189,191,193,201,203,205,206,209,212,213,214,215,216,217,222,223,225,228,230,231,232,234,237,239,240,242,244,245,251,254,255,257,258,260,265,270,271,282,286,287,295,301,302,303,304,306,307,312,313,314,316,322,324,329,333,334,338,340,343,344,345,346,349,350,356,357,358,360,362,365,366,368,369,370,371,374,375,376,381,382,388,391,394,396,397,398,401,408,411,414,415,422,430,436,437,439,441,444,447},
{4,7,8,9,14,15,19,22,23,25,27,31,32,39,41,42,45,52,53,55,61,67,69,70,71,74,75,77,79,81,82,87,91,92,94,96,104,107,108,109,111,112,114,116,117,118,119,121,124,126,127,131,137,139,142,143,148,152,153,154,155,156,161,171,175,177,178,179,183,184,185,187,188,189,190,191,192,194,195,198,199,203,204,205,206,208,211,214,218,220,224,227,228,229,235,236,237,239,245,247,250,253,254,257,258,259,260,261,263,268,271,272,273,275,277,278,281,283,286,287,289,292,294,295,299,300,302,304,306,307,309,317,319,322,323,326,329,330,332,333,334,335,337,338,339,340,345,346,347,350,351,360,363,364,365,369,375,378,379,380,382,385,386,389,390,395,398,399,402,410,411,412,414,416,417,418,419,421,423,428,429,431,432,435,437,442,444,446,447},
{2,3,5,8,9,10,12,15,17,18,20,21,22,23,24,30,31,38,40,41,43,46,47,50,54,56,57,62,63,66,75,78,79,91,92,94,98,100,101,102,108,114,116,118,122,123,126,129,130,134,135,138,148,150,151,154,156,158,159,162,168,169,170,173,175,178,181,182,185,188,193,195,197,206,207,212,215,216,217,220,221,223,227,228,229,231,233,235,236,240,241,245,247,248,254,258,260,261,262,263,265,267,268,278,280,283,287,289,292,293,296,299,301,306,307,308,309,310,313,322,326,327,328,329,332,336,337,339,341,342,344,349,350,352,356,357,358,362,364,365,368,370,371,373,375,378,379,380,387,388,390,391,395,396,400,401,402,403,404,409,411,414,415,416,419,422,424,425,429,432,433,434,435,436,445,447},
{3,14,15,16,17,22,24,26,29,30,31,32,34,37,39,40,41,42,43,47,48,49,50,51,52,55,56,57,65,68,70,73,74,75,76,78,80,83,84,85,87,89,92,94,95,98,99,100,101,104,105,107,115,118,121,127,136,140,141,142,143,146,148,149,150,152,154,155,156,162,165,166,175,176,178,179,180,181,182,183,186,190,191,192,198,199,202,206,212,213,216,217,224,231,234,237,244,248,250,251,253,254,257,258,263,268,278,281,286,287,290,291,293,295,296,297,299,300,304,306,310,312,317,318,319,321,322,327,331,335,336,337,338,340,343,344,347,349,352,354,355,359,362,364,366,369,371,372,375,378,379,381,384,385,386,393,394,401,403,404,408,409,412,415,417,418,425,428,429,430,432,434,435,436,444,447},
{2,4,5,6,11,12,13,14,15,17,20,22,23,25,26,27,35,37,38,41,47,48,49,53,54,55,56,58,59,61,66,69,70,71,72,74,75,76,78,79,80,81,85,91,92,95,97,98,99,100,101,105,106,109,112,114,115,122,123,126,127,129,131,132,133,135,136,138,139,146,148,149,150,152,154,157,163,164,169,171,173,178,181,185,186,187,189,195,199,202,204,205,206,207,209,211,216,217,218,220,222,223,229,231,233,234,236,238,240,245,247,249,257,258,260,261,265,268,271,272,274,277,281,282,283,288,289,292,293,294,295,299,300,302,315,317,318,319,321,325,326,328,329,330,331,335,337,338,340,341,342,347,348,352,357,358,365,371,374,375,376,377,384,387,388,389,392,394,398,400,401,402,406,407,408,411,415,420,422,423,425,426,428,429,430,432,433,434,435,437,439,443,444,445},
{1,7,8,10,11,20,22,24,27,29,31,33,34,35,36,37,38,39,42,48,50,53,54,55,56,63,64,66,69,73,74,75,76,77,79,82,83,90,97,99,101,106,108,113,115,116,120,123,124,125,126,129,131,132,133,134,135,138,139,144,145,149,151,156,160,161,164,165,168,169,174,180,183,184,185,187,189,190,191,193,194,199,200,201,202,203,204,208,209,211,213,214,216,220,223,224,225,226,231,233,234,235,237,239,244,245,248,250,252,253,254,255,262,263,271,273,280,281,284,285,287,288,289,290,292,293,297,298,302,304,310,311,312,314,317,320,323,324,325,327,328,330,331,332,333,334,336,337,339,341,343,346,348,350,351,354,356,357,358,362,364,365,366,367,370,388,389,392,393,398,400,403,404,413,416,417,420,423,425,428,432,434,438,440,441,444,446},
{1,3,4,10,15,17,24,25,26,31,34,38,40,46,48,50,51,52,53,55,58,60,61,64,65,69,73,75,76,81,86,88,89,90,91,95,97,99,102,104,108,110,111,113,116,120,123,124,125,137,138,143,145,146,147,151,152,163,165,167,168,174,175,176,177,179,184,186,190,191,194,195,196,198,202,204,206,207,209,210,212,216,217,221,223,224,225,229,231,232,235,236,242,243,253,254,256,257,258,259,264,267,270,274,277,278,282,283,285,290,291,293,294,296,297,302,303,306,308,311,312,314,317,318,320,321,322,323,324,326,327,330,333,338,341,343,348,352,354,360,362,363,366,370,379,380,382,383,384,388,389,395,396,398,403,404,407,408,410,411,412,414,420,422,424,425,435,437,439,441,444,445},
{1,7,8,9,10,14,16,20,22,25,26,27,34,35,36,39,40,44,45,49,50,53,54,55,58,60,62,67,68,70,73,74,75,81,85,86,87,88,91,92,95,103,105,110,112,114,115,117,119,123,124,127,128,130,133,134,136,137,139,142,143,144,146,147,148,149,154,158,161,163,166,167,169,171,175,176,178,186,187,189,190,192,195,196,197,200,201,202,204,205,207,208,209,211,213,216,217,219,221,226,227,228,229,231,232,234,235,237,239,240,241,256,257,258,262,263,264,268,270,271,272,277,282,283,288,291,292,297,298,302,304,305,308,309,310,311,312,313,314,315,317,319,321,322,324,325,329,330,333,334,335,340,343,350,351,354,355,359,364,365,366,368,369,370,372,381,382,383,389,390,392,395,396,399,400,405,406,407,408,409,411,412,413,414,416,419,420,422,428,432,433,434,440,447},
{2,3,6,7,8,10,12,13,16,17,18,19,21,23,28,31,33,35,36,37,42,43,50,51,53,57,58,61,65,67,68,71,72,73,75,76,79,81,89,90,91,92,96,97,101,102,106,107,110,111,112,113,114,116,118,119,122,125,127,129,132,133,134,135,136,140,142,143,144,147,150,151,154,155,161,162,167,169,172,174,177,180,181,182,184,193,195,199,201,210,212,216,218,219,225,227,231,232,233,234,237,241,245,248,249,250,255,263,265,267,272,273,278,281,282,288,295,298,307,309,314,318,322,323,325,326,328,329,330,331,332,334,338,339,341,344,345,347,348,350,353,354,359,360,361,365,366,368,370,373,375,376,377,378,383,385,387,388,391,394,397,398,402,407,411,416,418,422,423,428,430,432,434,435,436,437,439,445,446,447},
{1,3,5,6,9,15,17,18,19,21,22,23,25,26,30,32,35,36,37,39,41,45,50,51,54,55,56,57,58,63,65,68,71,74,78,80,84,86,89,91,92,94,96,97,98,104,105,106,107,109,111,112,114,115,116,119,122,123,125,128,134,139,140,142,143,144,146,148,154,159,162,163,164,165,166,169,170,171,175,180,183,186,189,190,192,193,195,198,202,204,206,209,211,212,216,217,218,219,220,225,228,231,232,236,237,241,242,245,248,250,251,253,254,260,261,262,263,265,268,278,283,285,286,288,292,295,297,302,303,304,305,307,309,310,313,316,323,326,334,338,340,342,348,353,354,355,356,357,358,363,366,367,370,376,377,381,382,383,384,386,389,393,394,397,400,411,412,426,429,431,436,438,441,442,443,444,445,447},
{1,2,7,9,10,11,12,14,17,18,19,20,26,27,28,37,38,39,40,41,42,52,55,57,60,61,62,65,66,67,69,71,74,77,81,82,84,85,87,89,95,100,101,102,104,106,107,108,109,114,118,122,128,129,131,132,133,134,136,139,140,141,142,144,147,148,151,152,154,156,157,159,162,165,166,167,169,171,173,174,176,178,181,182,183,188,191,192,195,197,200,203,207,210,218,220,222,223,224,226,230,233,239,242,243,244,246,248,251,252,254,255,258,259,260,261,262,265,267,268,269,274,279,280,281,282,284,286,288,289,292,295,302,307,308,309,310,317,321,322,324,327,328,331,332,337,338,341,344,345,346,347,348,349,350,351,352,354,356,357,358,360,364,371,375,383,386,389,392,393,395,397,399,409,414,415,417,418,419,420,422,429,430,433,434,435,436,441,442,443,444},
{3,7,10,12,14,15,16,18,19,21,23,27,28,37,38,39,40,41,48,59,62,63,65,72,74,76,78,80,83,84,87,92,94,97,98,99,101,102,104,105,110,112,114,122,124,125,126,127,128,129,134,135,138,146,147,148,154,155,159,161,163,167,168,170,171,172,174,175,176,177,180,186,187,188,189,191,193,194,195,196,207,209,213,219,220,221,223,224,225,227,230,231,233,235,237,239,245,246,253,255,256,257,258,263,264,267,269,270,271,274,275,276,279,280,282,283,284,285,286,287,290,293,294,295,300,302,303,307,309,310,317,319,322,323,327,328,331,335,341,344,346,347,349,350,351,352,354,357,358,359,360,362,364,368,373,375,377,378,379,382,385,391,396,397,400,404,407,410,413,415,418,427,428,433,441,442,443},
{7,11,13,14,15,16,17,18,22,25,29,31,34,37,40,42,43,48,53,54,57,58,60,62,67,68,70,71,74,76,81,82,83,86,91,92,94,98,103,104,109,110,112,115,120,123,124,127,133,134,135,136,140,142,146,153,154,156,159,160,166,171,172,173,174,175,177,179,180,182,186,189,195,196,198,199,200,201,202,205,210,213,215,218,219,222,224,227,231,232,233,235,236,237,238,241,243,244,245,247,248,254,255,256,259,262,265,266,267,269,271,282,287,290,291,292,293,294,295,297,300,303,305,306,310,311,318,319,321,324,325,326,327,328,330,337,343,345,346,347,348,350,353,354,357,363,364,365,370,371,373,377,380,389,390,392,395,399,400,401,403,405,406,407,408,409,411,412,413,414,416,417,422,423,424,425,429,431,432,435,436,438},
{1,2,4,7,9,12,15,17,23,24,25,28,30,35,37,43,44,46,47,49,51,52,56,57,58,66,69,70,71,74,76,78,80,83,85,89,91,93,96,97,104,105,106,110,112,115,118,124,125,126,130,132,133,137,141,143,145,146,147,154,157,158,164,165,167,168,170,171,173,179,180,186,187,188,190,192,194,197,201,205,206,209,210,211,213,214,215,217,221,223,224,225,226,230,234,235,239,242,246,248,249,253,254,256,257,258,264,265,268,271,272,275,277,281,283,284,288,289,293,294,297,302,305,306,309,312,319,321,325,326,327,331,332,333,343,350,354,359,360,361,363,365,366,371,372,379,387,389,390,395,396,399,400,401,404,408,414,415,416,420,423,426,427,430,431,433,434,435,439,441,443,444,445,447},
{1,3,7,8,14,15,16,17,18,19,20,22,24,25,30,32,35,36,37,46,52,57,59,62,63,64,70,75,76,81,83,84,86,89,90,94,96,97,98,102,105,106,108,112,113,117,120,123,124,125,129,130,131,134,138,141,142,146,147,151,152,153,155,156,164,165,166,167,168,170,171,172,173,178,179,180,181,183,187,188,190,193,194,196,198,199,200,201,202,211,215,217,220,226,230,231,234,237,241,244,248,251,260,261,262,264,265,266,269,270,273,277,279,280,284,285,287,290,292,293,295,297,298,300,302,305,308,309,312,314,322,323,324,327,329,332,339,341,343,345,347,348,349,351,352,353,354,359,360,362,363,366,367,369,370,374,379,381,385,389,390,391,400,401,402,406,409,410,411,412,414,415,421,422,425,427,428,429,431,435,437,438,439,441,443,444,445,447},
{3,7,9,11,15,16,17,20,23,24,26,31,35,36,40,42,46,47,49,54,55,60,64,65,66,68,73,76,77,79,82,84,89,91,94,95,97,100,102,105,107,109,115,119,120,121,127,129,135,136,137,138,143,145,149,151,155,157,158,159,163,166,167,168,169,177,179,181,183,186,187,188,192,194,195,196,200,208,209,225,226,227,228,230,231,232,233,234,236,240,241,244,246,247,248,251,255,256,258,262,266,267,269,272,273,274,275,276,280,282,283,285,287,288,290,291,292,295,297,301,302,303,304,305,307,310,311,316,317,319,321,322,325,328,332,334,336,338,339,341,342,347,348,356,357,358,363,364,365,367,368,374,380,381,387,389,391,393,396,397,399,400,403,404,405,406,410,411,421,422,423,428,433,434,435,436,438,439,440,444},
{2,5,7,11,12,13,15,16,17,19,21,23,24,28,31,36,37,39,42,44,46,50,53,60,61,66,67,68,69,71,73,74,76,78,84,95,100,104,111,112,113,114,116,117,118,130,131,135,136,137,138,140,144,145,146,147,149,151,155,156,161,163,165,168,171,172,173,175,176,182,183,185,186,191,193,196,198,201,206,207,208,217,218,219,222,224,225,227,230,232,238,239,240,243,251,253,254,258,259,262,267,268,269,273,275,284,286,291,292,293,296,298,300,304,310,311,312,313,320,326,328,329,330,331,332,334,342,343,346,348,349,350,351,357,358,359,362,363,364,365,369,377,378,380,384,386,387,391,392,395,396,397,400,402,403,406,407,408,411,413,421,424,426,432,440,442,443,447},
{7,10,17,19,21,23,28,29,36,38,39,41,44,45,46,48,51,53,54,55,61,62,63,64,66,68,71,74,77,78,83,84,85,87,90,91,92,94,95,100,102,104,105,108,110,111,112,115,116,118,122,124,125,126,129,131,134,136,137,138,139,140,142,143,145,146,147,148,152,155,157,159,160,162,163,164,165,166,168,170,172,175,177,178,180,184,187,188,189,191,207,209,210,211,213,214,217,219,221,222,223,229,235,239,241,244,246,247,249,250,253,254,258,260,261,263,266,268,269,273,278,279,281,283,287,288,296,300,303,304,312,317,321,323,324,328,329,340,341,342,344,345,346,350,351,355,361,362,363,367,369,370,371,373,380,381,382,383,387,388,389,393,395,398,400,403,405,407,408,409,414,418,421,425,427,428,431,432,433,439,442,443},
{2,3,4,5,6,9,10,12,13,14,18,21,24,28,33,39,43,45,47,49,55,57,59,63,64,66,68,69,70,72,74,75,79,82,85,87,89,95,96,98,104,105,108,109,111,112,115,120,123,124,125,126,127,131,133,140,141,143,145,146,147,152,156,157,162,163,168,169,170,174,175,181,182,183,185,186,188,189,191,192,194,196,198,202,203,207,208,212,216,217,220,222,224,234,235,236,238,239,241,246,251,252,257,260,261,264,268,270,272,275,276,277,279,280,281,282,283,291,293,295,297,300,303,305,307,313,314,316,318,319,324,326,327,329,331,332,333,335,345,348,350,353,354,355,356,357,364,371,372,373,378,380,382,383,384,386,391,394,395,396,401,404,406,413,414,419,420,422,423,425,428,429,431,433,436,437,438,441,444,447},
{1,2,4,9,11,12,15,20,21,23,25,26,33,41,42,43,45,46,48,50,52,54,56,58,59,60,65,66,68,69,71,72,73,76,78,82,87,92,99,102,106,109,111,112,113,115,120,121,125,127,129,136,137,139,141,142,144,145,146,147,151,152,154,157,159,160,161,163,164,165,166,169,171,175,181,183,186,187,188,189,190,191,193,195,196,199,202,206,208,209,210,213,214,217,221,224,225,226,232,235,240,242,244,246,248,250,254,255,257,264,273,274,275,278,280,281,284,286,288,293,294,295,297,299,300,302,303,306,307,313,314,324,326,329,332,333,334,335,336,339,341,343,346,347,351,356,358,360,362,364,368,369,370,371,374,376,379,382,384,385,387,388,389,392,396,397,398,400,406,414,416,417,419,420,421,423,426,431,432,434,438,440,441,446,454,457,458,466,467},
{1,2,6,7,8,12,15,16,21,23,25,28,30,32,36,37,42,44,46,51,52,62,65,66,67,76,78,79,81,82,85,86,87,88,91,94,97,101,105,108,109,110,111,112,113,118,119,121,122,124,128,132,137,143,144,145,149,150,151,154,155,156,157,158,160,167,169,173,177,179,180,181,186,193,195,197,199,203,205,208,209,216,219,221,224,225,226,227,229,231,234,238,244,245,247,249,250,252,255,257,259,262,264,265,276,277,280,281,283,284,285,288,290,296,300,301,302,304,305,306,308,310,311,317,323,328,330,332,334,337,338,345,346,349,350,351,357,358,359,361,363,364,365,367,368,369,370,374,375,377,378,384,386,387,390,393,396,397,398,399,401,402,403,410,414,415,419,420,421,422,426,427,428,430,431,434,438,440,442,447,448,450,451,452,453,455,457,458,461,462,464,465,466,467},
{1,2,6,7,10,11,14,16,19,21,23,26,29,31,35,37,43,44,48,49,50,53,54,55,63,64,66,67,72,74,79,80,83,89,91,94,97,99,100,101,103,106,108,109,110,111,114,116,117,118,119,120,122,132,133,136,138,139,142,143,144,145,149,153,154,155,157,164,167,168,170,173,175,178,180,182,183,184,191,202,207,211,213,216,219,220,222,226,227,231,232,234,235,238,239,242,243,246,248,250,254,255,257,263,264,265,267,268,275,276,277,280,281,282,286,295,296,302,304,307,315,316,317,318,320,324,326,327,328,331,335,336,337,338,340,342,344,348,349,350,353,355,360,361,365,368,372,373,374,380,385,387,393,400,401,408,409,410,411,413,415,418,421,422,423,425,426,428,430,431,438,440,442,443,445,448,449,450,452,453,455,456,457,458,460,462,463,464},
{3,8,9,12,13,14,15,16,19,20,22,24,26,27,31,34,35,41,42,44,48,49,50,51,52,53,55,56,57,60,61,66,68,69,71,73,76,86,96,99,100,101,104,107,108,110,114,121,123,129,130,131,133,136,139,145,147,150,154,155,159,160,165,168,170,173,175,177,179,182,185,186,188,199,201,206,207,208,211,212,215,216,218,221,222,225,227,235,239,252,253,255,256,257,258,260,262,264,268,269,279,282,284,285,286,288,289,298,299,301,302,305,309,310,311,313,315,316,317,319,320,327,331,332,333,334,335,340,343,346,349,350,351,352,356,357,361,366,367,368,369,375,376,379,385,387,389,393,395,396,400,403,409,411,414,415,418,419,426,427,428,430,434,437,440,441,444,447,452,458,462,463,464,467,468},
{6,8,12,14,24,26,27,30,33,37,40,41,42,44,45,50,51,54,55,56,58,61,63,64,66,67,71,73,74,76,81,82,84,85,86,88,91,93,96,97,98,103,104,107,112,113,114,115,118,120,131,132,137,142,144,146,147,150,153,155,161,163,165,166,167,171,173,175,178,179,180,181,183,187,189,192,193,196,197,198,199,202,208,209,210,214,217,230,233,234,236,246,248,250,252,253,257,263,266,267,268,269,276,277,280,284,287,292,293,294,295,296,301,302,303,305,306,307,309,311,313,316,318,319,323,325,326,327,332,333,339,340,343,344,346,349,350,351,357,361,363,370,371,372,373,374,375,376,377,378,380,381,382,384,387,388,389,395,396,397,399,400,401,403,404,407,408,412,414,416,419,420,421,423,427,430,432,433,436,439,443,444,448,450,458,461,464,466,467,468},
{2,3,4,7,13,14,15,20,21,22,23,24,29,30,31,32,34,35,40,41,42,43,45,50,54,55,56,59,60,64,65,67,72,73,76,77,81,83,84,90,91,97,99,100,104,110,113,114,115,117,122,125,129,132,142,144,146,148,149,154,155,156,157,161,163,169,171,176,178,180,181,184,186,192,194,195,196,197,200,203,204,208,211,212,214,215,216,223,225,227,231,236,239,245,252,254,259,260,264,266,270,276,277,278,279,281,284,285,289,291,292,293,294,296,304,305,311,314,315,318,319,322,324,328,334,336,338,344,346,347,348,349,351,352,353,354,355,356,359,361,363,365,371,374,375,376,380,382,384,386,390,391,394,397,401,402,406,409,410,416,418,424,425,429,430,434,442,443,444,445,446,447,452,453,456,457},
{3,4,7,11,14,15,16,20,21,23,26,27,28,29,30,38,39,40,41,49,50,55,61,63,64,70,75,79,80,82,83,84,87,89,94,95,96,98,100,101,104,109,111,112,116,120,121,124,127,128,129,134,140,141,142,146,147,155,162,164,165,168,169,171,177,182,183,184,185,186,187,188,189,190,191,192,195,196,199,200,202,207,211,212,213,214,218,220,223,225,229,235,237,240,241,243,245,248,249,250,251,252,255,256,258,259,260,261,263,265,271,274,279,280,292,294,297,298,305,307,310,312,313,316,319,321,322,332,333,335,338,339,340,344,345,354,357,358,359,366,369,371,376,379,380,381,383,384,386,389,392,394,398,399,401,402,403,405,406,408,409,411,412,415,416,418,422,424,428,431,433,434,438,441,443,444,445,448,449,452,456,458,463,464,466,467},
{6,8,9,10,11,12,20,21,22,24,25,32,37,39,45,46,47,48,52,55,56,57,59,60,61,65,67,70,71,72,73,76,79,85,91,93,99,100,101,103,105,109,110,111,118,128,131,134,135,136,143,146,148,155,157,158,165,166,168,169,170,173,174,179,192,194,199,200,203,205,206,208,210,214,215,217,218,222,223,225,230,233,235,236,237,249,250,251,252,253,254,255,256,257,261,262,263,264,266,268,269,270,271,272,275,276,278,280,282,284,285,291,292,295,298,299,300,303,309,310,311,315,316,323,327,329,330,331,333,334,336,338,339,342,343,344,345,346,347,351,353,354,355,357,358,359,361,364,365,368,369,370,371,372,376,380,383,384,385,386,389,393,394,395,396,401,403,407,408,410,411,416,419,420,421,422,424,425,426,427,428,431,433,438,439,440,441,443,444,449,456,457,462,463,465,466},
{2,3,4,6,7,8,10,11,13,14,16,17,19,22,27,30,31,33,34,36,37,38,40,50,51,52,53,54,55,58,61,66,70,71,76,81,83,84,87,94,96,98,106,110,112,123,124,126,129,131,132,133,135,142,143,144,152,155,156,161,162,164,165,175,181,187,188,190,191,198,202,203,204,205,206,208,215,221,223,224,225,226,230,231,233,239,240,241,243,247,250,254,257,262,263,264,271,274,282,286,288,292,298,300,301,306,307,309,310,311,312,313,318,323,326,327,328,336,338,346,354,357,358,361,363,364,365,368,372,376,379,380,382,384,385,389,394,395,397,398,399,401,402,403,405,406,407,409,412,415,418,422,424,428,429,431,434,435,436,438,439,445,447,452,456,458,459,460,461,464,466,467},
{3,14,17,18,19,23,24,26,27,28,29,30,31,32,33,34,35,36,37,39,40,43,47,50,52,54,56,59,61,63,67,70,71,72,74,75,77,78,80,83,84,87,89,91,92,95,99,104,105,110,111,112,115,120,122,125,126,128,130,131,137,138,139,140,141,142,143,144,145,146,147,151,153,157,160,164,172,173,176,184,185,186,187,188,189,192,194,196,197,200,202,205,206,207,209,210,214,216,223,231,232,234,236,237,244,246,247,251,256,259,260,262,265,272,273,274,275,276,281,283,284,286,287,288,291,292,294,295,298,300,301,302,306,308,309,312,314,316,321,322,326,327,330,331,334,335,336,339,340,341,343,344,347,349,354,360,363,364,373,375,377,378,382,383,384,386,387,388,389,390,391,392,393,401,402,403,405,410,412,413,420,421,422,423,426,428,430,432,437,440,443,444,448,453,456,457,462,463,464,468},
{1,2,7,8,9,14,18,21,23,24,25,33,35,40,41,44,45,48,49,50,51,52,55,56,59,60,61,62,63,64,68,73,74,77,79,88,91,92,94,95,96,97,101,105,106,110,118,119,121,122,124,126,134,139,143,146,148,151,152,153,155,157,158,160,163,167,170,171,173,175,176,179,180,181,184,185,186,190,191,196,200,201,204,205,208,209,210,213,214,217,222,223,224,226,230,234,235,236,241,244,245,248,249,250,252,253,254,255,256,262,263,266,268,269,270,277,281,283,287,288,289,292,297,299,303,304,307,308,310,313,315,317,318,321,326,327,328,331,334,338,339,340,341,342,345,346,349,351,353,354,355,356,357,359,362,363,365,368,370,373,374,376,377,381,383,384,386,390,393,395,396,399,402,404,405,409,410,415,416,423,426,427,428,430,431,434,435,437,439,443,444,448,449,451,453,455,457,459,462,464,465,467},
{3,6,13,17,18,24,27,30,32,34,40,43,46,47,48,51,56,58,60,65,68,71,72,73,74,75,76,77,81,86,87,89,92,94,95,97,98,99,100,104,105,107,110,111,112,114,116,121,122,124,126,128,130,131,132,134,136,138,139,141,142,150,153,154,155,156,163,176,178,181,183,184,186,190,191,197,198,201,203,204,207,212,213,216,217,219,220,222,223,236,238,239,242,247,254,255,256,258,263,264,265,271,275,280,282,284,286,289,290,298,303,304,307,309,311,312,313,315,316,320,321,324,325,326,335,336,339,340,347,349,355,356,358,359,360,363,364,373,377,379,381,384,388,391,392,402,405,408,409,411,412,413,415,416,417,421,425,426,427,429,436,441,442,443,444,446,447,450,452,457,459,463,466,467},
{3,6,8,9,10,13,17,22,24,25,26,27,28,30,35,36,37,38,39,41,46,49,51,52,53,55,57,59,61,64,65,66,69,73,76,80,83,84,87,89,92,93,94,99,100,101,106,113,114,116,118,121,127,128,129,130,131,133,135,136,138,139,143,144,147,150,151,158,159,162,164,165,166,167,168,170,173,176,180,181,182,184,185,189,192,193,199,202,203,204,208,209,210,213,216,219,222,223,225,227,230,234,243,244,247,248,249,250,254,255,258,263,264,265,267,271,272,273,274,276,280,282,283,285,286,287,289,290,292,293,294,295,298,303,305,306,309,310,312,315,316,317,318,320,325,328,330,331,332,335,339,343,346,349,352,363,368,369,370,371,372,375,382,384,387,389,394,396,398,400,402,409,412,421,423,424,425,429,431,434,435,437,440,452,453,461,468},
{1,3,4,9,10,11,13,14,15,18,20,23,26,28,34,35,36,40,41,43,44,48,54,56,57,61,62,64,68,69,71,72,74,79,81,83,86,87,88,89,91,92,95,100,101,104,105,107,111,114,119,121,127,129,130,131,132,133,134,135,138,144,146,147,149,150,152,154,155,158,161,163,168,170,171,172,173,177,178,179,180,185,188,190,191,193,194,196,198,199,200,202,204,207,208,211,212,216,219,223,224,225,227,229,230,232,233,238,241,243,244,245,246,247,253,254,255,257,258,259,262,266,271,272,275,277,278,281,282,288,293,294,295,296,310,312,318,324,326,328,337,338,339,342,343,345,350,352,362,365,366,367,368,369,370,372,375,376,381,382,385,387,391,393,394,400,402,406,413,415,417,423,424,425,430,433,434,436,437,438,445,447,448,452,454,455,456,457,459,462,465},
{4,10,11,12,13,16,18,20,21,22,23,25,27,30,31,34,37,38,42,46,48,55,57,59,62,67,68,73,74,75,78,81,82,83,85,86,87,88,90,92,93,94,96,99,100,102,106,110,111,112,113,114,115,116,118,119,122,123,124,126,128,132,134,136,139,141,143,148,149,152,154,155,158,160,166,168,174,175,182,183,185,191,192,194,196,197,199,200,207,210,214,217,221,222,224,225,227,230,231,232,235,241,245,246,247,249,253,254,257,260,261,262,264,265,267,269,272,274,275,278,280,282,287,293,296,297,304,308,309,311,316,318,319,322,327,329,334,338,347,348,349,350,353,355,359,360,361,365,367,372,373,374,375,378,379,385,386,387,388,390,392,393,395,397,402,406,407,409,410,416,417,421,422,423,424,426,428,430,434,440,441,443,447,448,450,451,452,455,457,460,461,467},
{1,2,9,11,12,16,19,20,21,24,26,31,40,43,47,48,52,57,58,60,62,63,64,66,67,68,69,73,76,79,81,86,90,91,92,94,96,99,100,102,105,107,109,111,112,113,115,117,123,125,126,128,130,131,132,136,140,141,143,144,145,147,148,156,157,159,163,168,170,175,176,179,183,186,188,197,200,202,203,205,208,209,211,212,215,217,220,221,222,224,228,229,231,236,240,241,242,247,249,251,253,255,256,257,261,262,264,270,271,273,274,275,277,278,279,282,285,287,290,292,294,298,301,305,308,309,310,311,312,319,324,327,328,332,333,337,343,349,353,360,361,362,363,364,366,369,372,374,377,378,386,387,391,392,394,395,396,397,398,403,404,409,411,412,413,414,416,418,421,424,426,427,429,430,431,434,435,438,439,441,442,445,448,449,450,451,453,455,457,460,461,464,466},
{2,6,7,8,10,13,14,15,19,20,21,29,32,34,36,38,40,42,44,45,47,48,50,54,55,56,57,58,60,61,63,65,66,68,70,79,81,84,85,90,94,96,102,108,109,114,116,120,122,123,127,128,130,131,133,135,136,138,141,142,145,150,155,157,166,169,170,171,172,175,176,180,181,186,196,198,200,203,207,208,210,212,218,224,225,230,234,238,246,247,248,251,255,258,263,265,267,270,272,274,278,280,283,290,291,292,295,296,297,298,299,302,304,307,309,324,325,327,328,331,332,334,336,337,343,346,351,353,354,357,359,364,365,366,368,369,370,372,373,374,375,377,378,379,381,382,385,391,392,396,402,403,404,405,408,410,411,415,417,420,422,423,424,425,427,431,432,433,434,438,440,441,442,445,446,448,449,455,457,458,460,463,464,468},
{2,4,8,9,17,19,21,24,29,31,33,36,37,39,40,43,45,46,47,48,49,50,51,54,57,58,59,60,62,63,64,66,69,70,73,77,78,80,81,82,84,86,88,89,91,94,95,96,98,99,106,107,108,109,111,112,113,119,120,123,126,139,140,141,143,144,145,146,152,153,154,155,156,157,164,166,167,168,170,171,172,173,174,175,177,180,181,184,185,187,188,190,192,194,195,196,197,199,202,203,205,207,208,210,211,212,213,227,229,231,233,237,240,242,245,246,249,254,255,258,259,260,268,269,270,272,277,283,286,287,288,289,291,292,296,301,302,306,309,312,315,316,317,319,320,321,323,324,326,328,336,337,345,347,348,350,358,359,360,362,364,368,369,370,373,374,375,376,378,383,384,393,396,399,403,404,406,414,416,418,419,421,422,431,435,446,447,450,451,456,459,465},
{1,2,6,7,8,19,20,23,28,34,45,46,47,55,56,61,63,69,71,72,76,79,81,82,87,89,91,95,99,101,102,106,107,111,114,116,118,121,122,127,129,131,133,135,136,137,138,143,144,145,153,155,158,163,164,165,166,168,169,173,174,176,177,184,188,196,198,199,202,203,204,205,206,207,208,209,214,218,219,222,234,235,244,245,246,250,252,253,256,257,258,270,272,273,275,276,278,281,283,288,289,292,293,294,296,299,301,302,303,305,306,307,313,317,318,321,322,323,326,329,334,340,342,344,346,348,350,353,358,363,370,375,377,379,380,381,382,384,389,391,396,397,399,400,402,406,407,409,410,411,412,413,416,417,420,421,422,428,429,430,433,436,437,441,442,446,451,452,454,457,459,463,466,467,468,474,475,476,478,480},
{1,3,8,9,14,16,17,25,26,28,29,30,31,32,34,36,38,41,42,45,49,52,63,65,66,67,68,69,73,74,77,79,83,87,88,89,93,95,97,99,106,108,109,110,112,117,124,133,135,139,140,142,144,146,147,148,155,157,159,160,162,163,166,172,174,175,177,178,180,182,184,185,186,188,190,191,192,193,196,199,200,203,208,210,212,214,215,217,218,220,221,222,224,225,226,228,230,231,232,233,234,236,237,238,245,246,248,250,256,257,262,264,266,267,268,272,274,277,278,280,282,285,287,290,293,295,298,300,304,306,307,310,312,313,316,317,320,321,322,324,325,327,328,329,330,331,333,335,338,342,344,348,349,353,357,361,367,371,374,376,378,383,385,387,388,389,391,392,395,396,401,403,408,409,410,414,416,417,419,421,422,425,426,427,428,430,432,439,440,441,443,448,451,453,455,459,460,461,463,464,468,472,474,479,481,483,486},
{4,7,12,17,18,19,21,23,24,26,28,29,32,33,34,37,38,41,48,49,51,55,56,59,60,63,64,65,67,68,70,75,76,77,79,80,82,84,88,89,91,95,97,99,103,104,107,109,110,114,117,118,119,121,126,127,131,132,134,136,146,147,149,151,152,153,155,156,160,163,165,166,168,169,174,175,181,182,187,189,192,194,195,199,202,203,204,207,208,210,212,215,219,221,223,225,226,230,232,234,236,238,239,242,247,249,253,256,257,260,261,262,263,264,268,272,275,282,284,285,286,289,290,291,292,295,299,302,303,304,305,309,312,313,316,322,324,326,329,333,334,336,339,341,347,348,353,355,356,357,360,365,366,367,370,371,375,377,378,386,387,388,391,392,398,400,402,404,408,409,411,415,417,422,424,427,429,431,432,435,437,442,445,446,447,449,452,453,456,457,459,461,462,463,466,472,478,481,482,485,486},
{4,5,6,7,11,12,13,14,17,18,21,26,28,31,37,38,42,43,47,51,52,54,60,63,69,70,73,77,79,81,82,84,87,89,90,92,93,96,97,100,101,103,104,106,109,112,113,116,117,119,122,125,129,132,133,135,137,139,140,142,143,145,146,148,149,152,154,157,161,163,168,169,170,174,176,177,178,180,181,183,186,191,192,195,196,197,198,201,203,205,206,207,208,213,214,215,218,221,222,223,224,225,228,230,231,232,236,237,238,241,245,246,247,248,253,254,256,258,262,268,272,275,282,288,300,302,306,307,310,315,318,319,320,321,322,323,324,325,326,330,334,335,339,344,349,352,354,355,356,363,367,369,370,375,376,377,378,384,387,389,390,397,398,399,400,401,403,406,410,413,414,415,417,421,422,424,426,431,432,435,437,438,442,445,446,448,450,455,459,460,462,463,465,467,468,470,477,478,480,482,485},
{1,3,5,6,7,8,9,11,14,17,18,21,25,27,28,34,40,43,44,45,46,49,50,53,54,57,64,65,68,70,71,72,74,76,78,80,81,84,86,89,91,92,96,97,99,100,102,105,107,110,111,115,117,118,132,133,134,136,137,138,139,141,142,144,145,150,151,153,155,156,159,162,163,164,165,171,173,174,175,176,178,179,180,182,187,189,190,191,193,200,202,204,205,206,207,209,211,213,216,217,218,229,233,234,240,241,242,243,245,247,249,250,251,253,260,264,265,266,268,270,271,273,274,280,286,289,292,293,294,295,296,299,300,308,309,313,315,319,320,321,322,324,325,326,336,338,340,341,344,345,346,347,349,350,353,355,356,357,358,359,360,361,363,364,367,368,369,383,384,385,388,391,396,400,401,403,405,408,410,414,415,418,425,427,429,430,432,440,441,442,453,456,457,458,461,462,468,470,471,472,473,475,477,479,483,484,485},
{7,8,14,16,19,21,22,23,27,33,35,36,37,38,40,41,42,43,44,47,52,53,59,60,62,66,68,69,75,76,78,80,90,91,92,94,96,98,99,102,107,111,120,122,125,126,130,131,132,134,137,142,143,146,148,150,152,153,154,156,157,159,160,161,163,170,174,177,178,179,181,189,192,193,198,200,202,209,210,213,214,215,216,219,222,224,229,230,231,232,233,234,236,239,242,243,248,253,254,257,261,263,267,270,273,276,277,279,282,284,287,288,293,294,295,297,299,300,301,305,307,313,314,316,320,323,324,327,328,334,336,337,338,341,346,354,358,360,363,366,368,369,372,373,375,380,382,387,390,391,394,398,399,400,404,408,410,417,418,426,428,429,431,434,436,437,440,441,444,445,447,449,451,455,458,461,462,464,470,472,473,475,478,479,481,486},
{3,4,5,8,9,10,16,17,25,27,32,33,34,37,38,40,43,48,53,58,59,61,63,67,68,69,75,76,81,82,83,84,86,87,88,99,100,102,103,107,111,113,116,121,123,125,130,133,136,140,141,143,144,145,146,147,148,149,152,155,156,159,161,162,163,167,169,170,171,172,179,180,182,183,186,188,193,200,202,204,205,207,211,212,213,215,217,218,223,226,228,229,233,237,238,245,251,252,254,256,259,261,263,264,265,266,269,270,273,279,281,284,286,287,291,294,295,296,300,302,306,307,310,312,315,319,320,322,328,337,339,340,342,346,347,351,354,356,358,361,364,366,367,368,376,389,391,394,396,399,402,407,408,409,412,413,414,417,422,423,425,426,428,429,431,435,436,437,438,442,443,445,446,448,449,450,451,453,457,462,471,474,476,478,479,481,482,483,485,486},
{1,2,3,4,7,12,13,15,19,20,25,26,31,35,42,43,44,46,47,48,49,59,63,64,65,67,68,69,70,71,77,80,81,82,83,84,85,86,88,91,92,94,96,97,98,99,105,106,110,112,113,114,119,121,123,125,127,130,131,136,137,138,139,142,143,144,148,154,157,161,164,166,168,170,173,177,179,183,187,188,192,197,199,201,202,203,204,205,207,216,220,222,225,226,229,230,235,236,238,240,242,243,244,249,250,254,257,265,266,269,270,271,273,276,278,280,281,298,302,307,308,310,312,313,314,319,320,321,322,324,327,328,332,336,345,348,349,351,355,359,361,364,367,368,371,376,378,379,382,384,386,390,391,393,403,405,406,408,409,413,430,431,432,434,438,442,443,444,445,447,449,451,455,456,457,458,463,466,472,477,479},
{3,8,12,13,14,16,18,19,22,23,24,25,26,27,30,36,41,44,46,49,53,56,61,65,68,70,76,77,80,85,89,92,93,96,101,105,106,108,111,112,114,116,124,125,129,130,132,133,136,140,143,144,146,147,148,149,152,155,157,159,161,162,164,166,167,169,170,171,173,182,187,188,189,191,193,199,200,205,208,213,214,216,217,220,224,230,231,232,233,234,237,242,250,256,260,261,263,265,266,269,272,273,274,277,282,287,288,289,290,292,294,297,298,300,301,302,303,304,309,310,312,313,316,320,323,325,326,327,331,332,333,334,335,336,337,340,341,342,345,348,350,353,354,356,359,361,367,368,371,373,379,384,386,387,389,391,393,396,397,399,402,404,405,409,412,413,417,418,419,421,423,424,427,432,436,442,445,446,451,452,454,458,459,460,463,464,465,466,470,476,477,484},
{8,9,14,20,21,23,25,27,33,38,41,51,54,57,63,65,68,69,70,72,74,75,76,79,83,84,89,90,92,95,97,98,104,108,109,110,112,118,120,122,128,129,131,133,137,139,141,144,146,148,154,155,156,158,160,163,164,167,169,171,172,175,178,180,182,183,185,186,188,190,195,196,197,200,201,202,206,208,211,213,218,219,220,221,222,228,230,232,235,236,239,243,257,263,265,267,268,269,276,280,282,285,288,289,291,297,299,302,305,307,310,312,323,324,327,328,333,334,337,339,340,343,344,347,348,349,352,353,354,357,359,364,366,368,376,378,379,380,385,387,388,390,391,397,398,403,405,406,407,409,412,419,423,424,425,426,427,428,432,433,436,437,438,441,442,445,446,449,450,452,454,465,472,475,476,477,479,481,482,484,485,486},
{3,5,7,12,13,18,21,22,23,25,27,31,36,37,40,41,42,43,46,47,48,51,52,55,58,59,65,67,68,72,76,77,78,83,85,87,89,90,91,93,97,98,102,104,106,107,113,114,116,120,121,122,136,137,138,140,142,146,147,148,149,150,151,152,155,156,165,168,170,177,179,180,181,183,184,185,186,189,191,193,195,198,199,200,203,204,206,208,209,215,222,225,227,229,234,235,238,247,250,252,253,254,257,258,259,260,264,268,272,278,279,286,288,289,290,291,296,303,305,307,309,311,313,320,323,329,330,331,334,339,341,344,347,350,352,354,355,361,362,363,368,369,370,371,373,374,375,377,379,386,388,389,390,393,395,398,402,407,416,418,419,420,424,428,430,432,433,434,435,436,437,438,439,440,448,451,452,457,458,459,460,461,463,469,472,480,482,485},
{1,2,8,10,11,14,16,18,19,22,23,28,29,30,33,35,38,40,41,43,44,45,46,48,49,51,54,57,58,59,60,61,62,68,69,70,72,75,77,80,81,84,86,87,91,97,99,101,106,107,110,114,117,118,120,122,123,124,125,128,135,136,137,139,140,143,144,145,147,151,160,166,168,170,174,175,176,178,180,182,183,185,186,189,190,192,193,200,202,203,206,213,215,220,222,226,229,232,236,240,243,244,245,246,252,257,260,262,263,265,268,270,271,273,274,280,281,283,289,293,295,296,298,300,302,308,310,312,313,314,315,319,322,324,333,336,342,347,352,353,354,359,362,364,365,370,371,376,380,385,386,387,390,391,396,400,401,404,405,407,414,421,422,426,430,433,437,438,440,441,447,449,453,457,458,459,467,468,474,477,478,485,486},
{1,2,8,10,12,15,16,22,23,24,25,27,31,33,34,39,40,43,44,50,54,56,57,58,62,69,70,72,79,83,84,85,88,89,90,91,95,96,106,108,113,114,115,117,121,124,130,131,132,134,137,138,139,141,145,149,150,151,152,154,155,157,159,160,162,163,165,166,169,172,173,180,181,183,185,186,194,197,198,199,200,201,203,205,208,213,216,218,219,220,223,225,227,228,231,233,234,237,239,241,244,247,250,252,253,255,257,260,262,263,264,267,271,275,277,278,280,283,289,291,292,293,296,301,303,305,306,310,311,313,314,315,324,328,331,335,340,342,346,348,350,351,353,356,362,364,366,367,370,371,377,381,382,384,386,389,391,392,393,398,401,407,409,412,416,417,420,425,426,429,430,431,433,434,437,442,444,447,450,453,454,459,460,469,472,474,475,476,477,478,479,482,483,484,485,486},
{1,2,4,9,10,11,12,13,14,16,20,26,29,34,37,38,39,41,45,47,48,49,51,52,55,58,62,64,71,72,75,78,79,82,86,87,102,106,107,108,109,113,114,116,117,121,123,126,127,130,132,133,135,136,138,143,145,149,155,158,159,161,162,163,164,166,167,168,175,177,179,182,184,187,189,196,198,200,202,205,206,210,211,216,217,218,219,220,221,225,226,227,228,229,230,231,233,235,236,237,238,239,242,245,246,247,250,251,252,254,255,256,257,258,259,262,265,266,267,268,270,272,275,276,277,278,282,287,288,289,290,292,293,296,297,298,299,302,303,305,306,307,311,313,316,320,323,325,326,327,330,337,341,343,344,345,347,348,353,354,358,359,370,371,375,376,377,380,383,384,388,389,390,394,398,401,402,403,404,405,407,414,419,421,422,424,425,428,429,431,438,441,442,445,447,448,451,457,460,462,465,474,475,476,477,481,482,485},
{4,5,6,13,14,16,20,22,27,28,32,39,41,43,44,47,50,51,52,53,55,56,59,60,62,65,66,67,70,71,75,76,78,81,82,83,84,85,86,87,89,91,94,96,103,104,105,110,112,114,116,118,124,125,128,131,133,134,139,144,146,147,149,150,152,157,159,163,164,169,173,174,175,176,183,185,186,188,192,193,195,197,198,200,205,206,207,209,210,215,217,221,222,224,225,226,227,229,230,231,232,234,235,239,241,244,247,250,252,253,254,255,257,261,262,264,269,272,276,277,278,282,283,284,285,286,287,290,292,293,294,299,300,304,310,312,316,318,320,322,323,326,327,328,329,330,333,335,336,338,339,341,342,343,346,347,349,352,353,357,359,363,366,367,368,374,375,376,377,380,381,383,384,386,389,392,393,396,397,398,399,401,403,404,405,406,410,414,420,421,425,434,435,437,445,446,447,448,452,453,454,456,457,458,460,464,469,470,471,472,478,480,482,483,484,486},
{1,3,7,8,10,12,17,21,31,32,35,36,37,39,41,44,45,46,47,49,54,66,73,76,77,78,79,80,81,82,83,88,90,92,93,94,95,96,101,110,111,115,116,119,122,125,126,131,133,136,143,144,150,154,160,162,164,172,173,176,186,189,191,192,195,196,197,199,200,206,209,212,220,221,222,223,224,225,226,228,229,233,235,238,241,243,246,248,250,252,257,259,262,263,265,271,272,275,277,278,281,284,287,289,290,291,292,293,294,296,297,298,303,306,307,317,320,322,325,327,328,329,332,334,341,344,345,349,351,352,365,366,367,370,371,372,373,374,379,383,384,385,387,388,389,392,394,397,399,400,403,404,405,411,412,419,421,423,428,430,434,439,441,443,444,445,448,450,453,455,459,464,467,468,471,472,474,476,478,481,483,486},
{1,7,10,19,26,31,37,38,39,41,45,47,48,55,60,61,62,63,64,68,72,74,81,82,84,86,95,96,98,99,104,106,107,109,110,113,114,117,121,122,128,129,131,133,135,136,141,145,147,148,149,151,152,153,154,157,158,168,171,174,182,183,185,189,190,191,193,195,197,202,204,205,206,207,208,211,214,215,217,218,220,221,223,224,226,228,231,236,239,242,243,244,246,248,252,253,255,256,257,258,259,265,267,269,270,271,273,274,275,283,287,290,291,292,296,299,303,306,308,313,315,318,320,322,324,326,329,332,334,335,336,347,349,350,351,353,355,356,357,358,360,365,373,376,377,378,379,381,386,389,390,396,398,404,405,407,409,412,417,419,420,421,422,424,425,427,428,429,439,442,451,453,454,456,458,460,461,464,465,467,469,471,478,484,485},
{1,3,5,7,8,9,10,12,14,15,17,18,19,25,27,28,30,34,35,36,37,41,42,44,45,46,47,51,55,56,58,60,65,66,70,73,75,77,80,81,82,83,84,85,90,91,92,93,94,99,100,107,115,118,119,120,121,122,124,125,126,127,131,137,141,143,145,147,153,156,157,158,159,160,162,171,172,174,179,181,183,185,186,188,193,194,195,197,199,200,207,208,210,214,215,220,224,228,231,233,234,236,238,239,243,244,245,246,251,254,255,257,258,259,262,265,269,270,272,274,276,286,287,295,298,300,306,307,308,310,318,320,323,324,325,326,327,331,336,338,341,342,344,347,349,350,351,352,355,358,362,370,371,373,378,379,382,384,385,400,403,407,408,419,421,422,423,427,430,431,432,433,436,438,444,445,447,449,450,454,455,460,461,466,470,472,474,476,478,479,480,481,482,485,486},
{2,4,5,10,14,22,23,24,29,30,32,33,39,40,41,44,47,48,50,51,52,53,54,58,63,65,66,67,68,72,78,79,80,81,82,89,92,99,102,103,104,107,111,114,115,117,118,127,129,130,132,136,139,140,141,143,144,147,149,150,151,154,155,157,160,163,164,166,170,173,174,178,181,185,186,188,193,194,201,202,206,209,210,214,217,219,220,221,225,226,227,228,229,235,239,249,250,253,255,257,262,264,266,267,268,270,276,278,279,281,287,290,292,294,295,296,297,298,300,302,305,306,308,309,310,311,312,314,316,317,322,324,331,332,333,335,337,338,339,340,343,350,353,355,356,357,359,363,364,365,366,367,368,369,370,373,374,377,378,379,382,387,388,390,391,392,394,399,402,405,406,407,408,410,411,412,413,417,419,424,425,427,430,431,436,443,445,447,448,449,451,454,455,456,458,464,466,467,468,469,473,476,478,479,482,485},
{5,7,8,12,20,21,25,26,28,30,32,44,51,52,55,56,57,58,66,71,77,79,80,81,82,88,92,96,98,99,101,103,106,108,110,115,117,120,125,128,130,132,133,139,142,146,147,152,155,156,157,158,162,165,167,169,170,171,175,176,178,181,183,184,190,195,197,199,205,206,210,212,215,216,218,224,225,232,233,235,236,237,239,240,241,242,243,246,247,249,250,251,252,254,255,261,262,265,270,271,276,279,282,284,289,290,293,295,298,299,301,304,305,307,315,316,317,319,320,322,324,327,330,333,334,345,346,352,353,354,355,356,358,359,360,361,362,365,368,370,372,374,375,376,377,390,391,393,394,397,400,403,411,417,421,425,427,428,430,432,435,439,441,444,448,449,451,454,455,456,460,461,466,469,480,481,485,486,490,491,492,495,496,497,504,505},
{1,2,4,7,10,11,12,13,14,16,17,20,22,23,24,25,32,34,37,40,46,52,54,56,60,62,63,64,74,81,83,85,86,87,88,91,95,96,99,100,104,107,110,114,115,116,118,119,122,124,129,130,134,143,145,146,147,151,152,153,157,160,161,165,166,170,173,174,176,178,179,183,186,188,189,192,195,199,201,202,204,206,207,209,210,211,213,214,218,221,225,226,229,236,237,238,240,242,244,248,252,253,255,258,259,260,262,263,264,265,266,269,277,279,286,288,289,291,292,294,296,297,299,300,301,303,304,305,307,310,318,321,329,330,335,338,339,340,341,343,345,349,353,354,355,361,366,367,368,369,370,371,374,377,379,381,383,385,388,391,394,397,400,401,403,404,407,408,410,411,412,414,415,421,422,426,432,434,436,437,440,441,444,446,453,458,460,463,467,468,469,471,473,476,477,479,482,489,490,491,492,496,498,500,501,504,505},
{3,4,6,7,8,10,12,13,16,18,22,27,30,32,33,35,38,41,42,45,46,47,50,55,59,60,63,65,69,71,73,76,77,78,83,85,87,92,98,103,105,107,110,111,112,115,122,123,124,125,126,128,129,132,133,134,135,140,143,147,149,152,153,154,155,156,160,161,162,164,165,166,167,171,172,176,184,186,187,188,189,193,194,196,197,201,208,215,218,221,222,225,226,231,232,238,241,242,248,257,260,269,274,275,280,281,283,284,287,288,289,292,294,299,302,304,305,307,310,312,314,316,318,325,331,333,335,336,339,342,344,346,350,352,353,355,357,359,363,366,372,373,375,376,377,378,383,384,385,386,389,393,396,397,398,401,404,407,409,413,416,417,418,422,423,426,430,431,434,437,438,439,442,447,449,452,454,455,456,457,462,464,466,469,470,473,474,480,481,485,486,487,488,493,501,503,504},
{1,2,3,6,7,9,13,15,18,20,22,23,25,27,28,33,34,37,38,44,47,49,55,57,59,62,63,66,67,68,69,70,76,81,85,86,89,91,93,95,96,100,105,107,108,109,110,111,114,116,125,127,134,135,138,140,141,143,145,146,150,155,158,162,163,164,165,169,170,173,175,178,180,182,183,189,193,199,200,201,202,204,210,213,214,219,220,222,223,226,227,228,234,238,239,242,245,247,248,249,251,254,255,260,265,269,278,279,283,287,288,289,290,294,299,300,302,305,306,308,313,314,316,320,321,322,323,324,326,327,328,330,331,336,337,338,339,340,341,343,345,346,350,354,356,357,358,360,365,366,368,371,372,374,377,379,380,381,382,383,385,387,394,395,396,399,402,403,405,408,409,415,417,418,420,423,424,432,437,438,439,442,443,444,447,449,451,455,456,458,459,463,464,465,467,468,473,477,478,479,480,482,493,498,499,504},
{6,7,8,9,10,13,14,15,16,18,19,20,25,26,28,29,32,38,40,41,42,46,48,49,50,51,52,54,55,57,58,59,63,66,67,70,71,72,74,76,77,80,86,89,95,97,102,106,107,114,115,116,119,120,124,125,126,128,129,130,131,133,135,136,138,139,145,146,147,148,149,160,164,165,168,169,172,176,177,188,189,190,192,194,195,197,199,200,203,213,218,225,229,232,242,243,246,247,253,254,259,260,261,266,267,268,269,272,273,274,275,276,277,279,280,283,285,286,287,292,298,301,309,314,315,316,317,318,320,327,328,330,331,332,337,338,341,342,343,346,348,361,362,363,366,367,373,378,384,385,391,398,402,406,407,409,414,419,424,426,429,431,435,436,437,438,440,442,444,446,450,451,452,453,455,467,472,476,479,491,492,496,497,498,499,503,505},
{1,2,5,6,7,8,11,14,15,18,25,26,27,30,32,37,38,40,50,53,56,57,64,66,67,69,72,73,75,76,81,82,85,86,87,94,96,97,104,106,107,110,112,120,121,122,123,128,131,133,135,137,140,141,142,143,146,148,149,150,154,155,158,161,162,163,166,173,179,181,182,187,190,191,194,195,203,205,206,207,208,214,218,224,225,226,227,229,232,233,235,237,239,240,243,250,251,257,261,263,264,265,268,273,274,275,278,284,291,293,295,299,306,310,312,313,314,316,324,329,330,332,334,335,337,338,340,343,345,346,349,350,351,352,360,363,364,367,370,376,377,380,382,383,390,392,395,396,397,399,400,402,403,404,409,410,411,412,414,418,419,424,425,427,428,432,434,437,438,439,440,444,447,450,452,453,454,455,456,458,460,461,466,467,468,469,470,472,475,479,482,483,484,485,486,491,492,493,494,495,500,501},
{2,5,6,7,10,11,12,14,15,16,18,20,21,23,24,32,33,36,37,39,41,42,43,54,55,59,60,62,71,72,74,75,76,77,79,80,82,84,93,97,98,100,101,103,109,110,112,114,116,124,126,127,128,129,131,134,138,139,144,147,148,150,151,152,153,165,168,170,172,173,174,175,176,178,181,182,183,187,190,192,193,202,203,205,206,209,212,214,216,217,219,221,222,223,225,226,227,228,229,234,238,239,240,246,247,248,249,252,255,259,264,266,268,271,273,275,276,277,285,290,291,294,299,301,302,304,305,308,311,312,314,317,320,322,327,328,331,335,336,338,341,343,345,346,349,352,353,356,357,358,360,367,370,377,380,383,393,396,403,408,409,412,414,417,419,422,423,426,428,436,437,438,442,448,453,457,458,460,462,467,478,479,480,481,486,490,491,494,498,499,500,503},
{1,2,3,6,9,11,17,19,20,21,23,24,25,28,30,31,32,34,35,37,38,41,42,43,47,52,53,54,57,63,68,70,72,74,75,77,78,80,82,83,84,85,88,89,96,98,99,101,104,108,116,118,119,120,121,122,123,125,131,133,134,135,138,139,140,147,148,149,150,152,154,159,160,161,163,164,165,169,174,175,177,178,179,181,185,186,190,191,194,195,197,198,199,200,202,205,211,212,213,215,220,224,226,228,229,230,232,233,235,237,240,242,243,246,247,248,250,251,254,258,259,262,264,266,267,268,269,273,282,287,288,289,290,291,298,300,302,303,311,314,315,317,318,322,324,326,327,328,333,334,336,341,342,343,346,348,351,352,355,361,363,364,365,366,369,370,371,372,373,374,376,380,383,384,386,389,390,398,400,401,402,403,406,407,409,410,418,419,420,433,435,437,441,442,447,449,456,462,463,466,476,477,483,484,488,489,491,493,494,497,502,503,505},
{2,5,11,17,20,22,23,24,33,36,38,39,46,48,51,66,67,68,71,72,74,75,78,79,85,93,95,96,99,101,106,107,108,112,113,116,117,118,119,120,121,124,125,129,131,133,136,137,138,139,140,141,147,149,150,151,153,154,159,161,163,164,166,167,168,174,177,178,181,182,185,186,192,197,198,199,200,204,205,209,211,213,216,217,218,220,221,222,223,224,226,227,228,234,237,241,242,244,245,246,247,250,257,261,265,268,269,270,271,273,275,277,280,281,282,283,286,291,292,293,296,298,299,302,303,304,305,310,311,313,315,317,321,325,326,327,329,330,336,337,338,342,343,346,347,352,356,358,360,362,363,369,371,373,374,377,378,379,380,386,387,391,394,395,396,398,400,403,406,407,408,412,423,424,431,434,437,440,441,448,454,458,461,462,463,464,467,474,475,477,480,483,486,489,492,493,497,498,503,504,505},
{3,4,6,8,11,13,15,22,23,24,28,31,33,35,39,42,45,52,54,55,60,65,70,81,83,91,92,97,99,102,103,104,106,107,109,114,115,117,119,121,131,132,133,134,135,138,140,141,142,147,149,151,155,156,157,161,164,171,172,180,181,185,189,190,194,195,196,198,203,207,210,211,212,213,218,219,220,221,223,231,233,235,236,239,240,242,244,246,247,250,251,257,258,260,261,269,271,280,283,286,288,291,292,295,298,299,301,302,303,304,305,310,314,315,316,318,319,324,325,327,329,330,332,340,345,347,350,353,355,356,364,365,366,367,370,373,374,375,380,382,383,385,387,391,392,395,408,409,410,411,412,416,418,421,422,426,428,429,434,435,438,439,440,445,446,447,449,451,459,461,462,463,467,470,471,472,473,477,478,480,481,482,483,485,487,491,492,495,499,501,504},
{1,2,3,4,5,6,9,11,14,15,16,19,21,26,27,28,29,30,36,39,40,41,43,46,47,50,56,57,58,64,65,68,71,77,78,79,82,83,86,91,92,98,100,101,102,103,104,105,109,111,113,114,116,118,120,122,124,127,128,130,131,132,133,136,137,138,139,140,141,146,148,152,154,155,156,161,164,170,171,173,174,175,176,177,178,180,181,182,185,188,189,194,196,202,203,209,217,218,219,220,221,223,224,228,230,234,237,240,241,244,246,249,250,251,252,253,257,262,265,266,269,270,273,274,276,277,281,283,284,285,287,291,292,296,298,302,303,304,306,309,313,319,324,325,327,328,329,330,331,335,337,339,341,342,343,344,345,347,349,352,355,356,358,361,363,364,366,368,369,370,371,372,374,376,377,379,382,385,386,389,391,392,395,397,401,403,404,406,407,409,410,412,414,415,416,419,420,422,424,427,429,432,437,438,439,440,444,446,447,448,449,450,454,455,456,457,460,461,466,468,469,470,473,474,475,478,481,483,489,491,493,494,495,496,499,502,503,504},
{3,6,8,10,11,12,14,21,27,28,30,40,42,44,45,48,51,52,53,58,59,61,66,68,69,72,73,75,76,79,80,89,90,91,92,95,98,100,101,102,103,105,106,108,109,114,119,121,122,127,128,129,130,131,135,139,141,143,146,151,153,156,157,160,161,163,165,166,168,169,171,172,175,176,181,182,185,186,190,193,194,195,198,200,202,206,207,209,212,213,219,223,224,226,229,239,240,243,245,246,250,251,254,256,261,262,264,265,268,269,277,279,280,282,284,285,286,289,291,292,295,298,299,303,304,307,308,309,319,324,325,326,328,330,338,341,347,348,357,360,362,363,370,371,374,375,378,386,387,389,393,396,398,399,404,406,407,412,415,422,423,424,425,426,427,428,429,434,435,436,440,443,444,451,452,453,454,459,463,466,468,470,477,479,480,481,483,485,487,488,489,490,491,492,493,497,499,500,504,505},
{3,5,6,7,8,9,14,15,18,19,21,32,35,37,38,43,47,57,59,60,61,63,65,67,69,70,71,72,78,80,81,83,86,88,89,93,99,100,102,103,105,106,108,111,123,125,126,129,135,138,140,149,151,153,155,159,161,165,166,167,171,174,175,176,178,181,182,183,184,185,186,188,189,193,194,195,197,203,210,212,213,214,216,219,220,221,222,223,230,231,240,245,247,248,249,250,253,257,260,262,267,271,286,287,288,292,295,297,298,299,302,305,307,308,309,310,311,313,315,317,318,319,321,323,324,325,329,331,333,334,335,337,340,341,344,348,350,355,357,358,360,361,363,367,373,375,376,377,382,383,385,389,390,397,400,402,407,409,410,411,412,414,417,419,420,425,427,429,434,436,438,439,440,441,444,445,446,447,449,450,455,456,462,463,468,469,474,475,478,479,481,485,486,487,488,489,494,497,500,501,503},
{1,2,5,7,8,12,14,15,18,19,20,21,22,23,26,27,28,29,31,33,34,37,38,42,46,50,51,52,53,62,67,68,70,71,72,74,82,85,88,92,96,97,99,101,102,104,109,111,112,115,117,118,119,120,122,127,128,132,139,142,149,150,152,154,157,159,160,168,169,172,173,174,177,178,180,183,184,185,190,195,199,200,201,202,204,205,211,214,216,224,225,226,228,231,232,234,239,240,242,245,248,254,255,259,264,269,272,276,278,280,281,282,285,286,287,292,293,295,296,297,299,305,309,310,317,318,320,322,323,324,325,326,328,331,334,335,336,344,345,346,347,350,352,354,356,357,360,362,366,367,375,378,380,382,387,392,394,398,400,401,403,405,415,416,418,419,420,421,427,429,431,432,433,435,437,438,439,444,447,449,451,453,454,458,459,461,463,468,471,473,476,477,479,481,482,483,487,489,491,492,495,502,504}];
