nBusiness = 262;
nMeetings = 500;
nTables = 27;
nTotalSlots = 24;
nMorningSlots = 9;

requested = [|59, 24,1,
|16, 223,1,
|197, 28,3,
|122, 44,1,
|49, 233,1,
|241, 109,3,
|235, 178,3,
|148, 171,1,
|251, 70,3,
|126, 181,1,
|94, 107,1,
|33, 183,3,
|147, 220,1,
|9, 262,3,
|226, 51,3,
|228, 141,3,
|84, 12,1,
|30, 155,3,
|41, 215,3,
|14, 47,1,
|76, 256,3,
|208, 149,1,
|47, 215,1,
|107, 235,3,
|70, 147,1,
|183, 126,1,
|171, 30,3,
|9, 181,3,
|228, 76,3,
|41, 49,1,
|155, 28,1,
|122, 24,1,
|141, 94,1,
|208, 44,3,
|256, 262,1,
|226, 178,3,
|223, 109,3,
|241, 16,3,
|12, 251,1,
|149, 197,3,
|51, 148,1,
|233, 220,1,
|59, 84,3,
|33, 14,3,
|215, 26,3,
|197, 228,3,
|155, 24,3,
|122, 35,3,
|141, 65,1,
|248, 43,1,
|59, 243,1,
|107, 181,3,
|149, 12,1,
|70, 121,3,
|220, 126,3,
|142, 255,3,
|147, 201,3,
|183, 30,1,
|33, 109,3,
|51, 16,3,
|256, 44,1,
|34, 165,3,
|98, 41,1,
|171, 133,3,
|226, 116,1,
|94, 71,1,
|165, 259,1,
|243, 16,3,
|94, 33,3,
|141, 98,3,
|71, 30,3,
|55, 59,3,
|70, 35,1,
|248, 105,1,
|24, 215,3,
|252, 44,3,
|155, 65,1,
|122, 226,3,
|220, 116,3,
|171, 161,1,
|147, 142,3,
|237, 51,3,
|201, 184,3,
|121, 41,3,
|43, 34,3,
|133, 255,1,
|256, 12,1,
|126, 26,1,
|161, 55,3,
|180, 142,3,
|65, 51,3,
|112, 184,3,
|252, 255,1,
|166, 12,1,
|94, 143,1,
|67, 105,3,
|79, 165,1,
|160, 98,1,
|30, 43,3,
|33, 59,3,
|237, 16,3,
|243, 24,3,
|26, 211,3,
|201, 141,3,
|102, 188,3,
|116, 213,1,
|177, 35,3,
|259, 250,1,
|129, 256,3,
|220, 70,1,
|129, 180,3,
|70, 143,1,
|177, 26,1,
|35, 163,1,
|112, 15,3,
|256, 172,3,
|24, 184,3,
|60, 212,3,
|247, 209,3,
|250, 67,3,
|201, 97,3,
|79, 17,3,
|55, 116,1,
|246, 255,1,
|213, 16,1,
|27, 175,1,
|252, 160,3,
|211, 13,3,
|141, 220,1,
|102, 134,1,
|43, 166,3,
|94, 188,1,
|102, 60,3,
|17, 16,1,
|166, 67,1,
|252, 70,3,
|116, 184,1,
|15, 23,3,
|97, 27,3,
|238, 180,3,
|129, 35,1,
|134, 250,3,
|57, 175,1,
|247, 96,1,
|141, 163,1,
|209, 201,1,
|220, 212,3,
|94, 177,3,
|13, 172,1,
|43, 24,1,
|112, 246,3,
|120, 211,3,
|61, 36,3,
|160, 79,3,
|27, 17,3,
|129, 116,1,
|211, 175,3,
|112, 23,3,
|180, 20,1,
|15, 184,1,
|160, 247,3,
|57, 61,3,
|115, 102,3,
|13, 132,3,
|36, 172,1,
|202, 246,3,
|83, 252,1,
|219, 5,1,
|163, 60,3,
|134, 35,1,
|67, 220,3,
|209, 120,1,
|94, 238,3,
|24, 52,3,
|153, 212,3,
|96, 43,3,
|157, 112,1,
|110, 211,1,
|153, 53,3,
|175, 160,3,
|150, 202,3,
|86, 245,1,
|17, 172,1,
|224, 20,3,
|132, 115,3,
|134, 1,3,
|219, 23,3,
|180, 5,3,
|129, 151,1,
|56, 247,1,
|83, 120,3,
|117, 36,1,
|18, 209,3,
|48, 52,3,
|60, 246,1,
|252, 57,1,
|184, 163,3,
|102, 96,1,
|31, 1,2,
|17, 202,3,
|160, 5,2,
|246, 48,2,
|131, 252,3,
|53, 83,2,
|222, 52,3,
|245, 261,2,
|172, 209,3,
|129, 211,3,
|175, 224,2,
|20, 86,2,
|132, 60,3,
|184, 153,3,
|198, 117,3,
|204, 157,3,
|115, 151,2,
|96, 150,3,
|134, 110,3,
|23, 120,3,
|247, 18,3,
|56, 103,2,
|120, 172,2,
|60, 222,3,
|202, 40,3,
|131, 123,3,
|1, 209,2,
|50, 110,3,
|132, 211,3,
|53, 22,3,
|247, 204,3,
|154, 23,3,
|261, 157,3,
|103, 52,3,
|252, 86,2,
|245, 153,2,
|48, 117,3,
|96, 190,3,
|135, 29,3,
|127, 150,3,
|5, 63,3,
|56, 151,3,
|136, 99,3,
|31, 198,3,
|206, 153,2,
|99, 2,2,
|127, 40,3,
|211, 222,3,
|136, 110,3,
|123, 245,3,
|1, 132,3,
|113, 150,2,
|52, 6,2,
|56, 48,3,
|53, 23,3,
|50, 209,3,
|247, 29,3,
|5, 96,2,
|86, 66,2,
|100, 154,2,
|190, 104,3,
|151, 196,2,
|261, 114,3,
|63, 135,3,
|210, 22,3,
|103, 89,2,
|114, 86,3,
|88, 96,3,
|119, 136,3,
|192, 261,3,
|247, 135,2,
|151, 210,2,
|81, 89,3,
|158, 37,3,
|5, 100,3,
|10, 222,2,
|29, 153,2,
|52, 123,3,
|110, 66,3,
|254, 206,2,
|6, 3,3,
|196, 104,3,
|111, 48,3,
|99, 103,2,
|63, 22,3,
|113, 68,3,
|205, 2,3,
|1, 245,2,
|88, 89,3,
|6, 137,2,
|25, 113,3,
|151, 261,3,
|111, 63,3,
|38, 108,3,
|48, 29,3,
|37, 104,3,
|192, 103,3,
|200, 196,2,
|92, 66,3,
|81, 68,3,
|52, 218,2,
|2, 153,3,
|114, 234,3,
|205, 158,3,
|99, 254,3,
|22, 229,2,
|86, 119,3,
|210, 195,2,
|222, 3,2,
|164, 10,3,
|192, 104,3,
|205, 244,2,
|66, 81,2,
|22, 114,3,
|10, 158,2,
|7, 25,2,
|103, 48,3,
|169, 99,2,
|92, 2,2,
|200, 113,2,
|139, 37,3,
|6, 164,3,
|77, 195,3,
|218, 234,3,
|46, 210,2,
|86, 38,3,
|88, 111,2,
|196, 174,3,
|3, 137,2,
|63, 29,2,
|108, 229,3,
|254, 89,3,
|169, 103,3,
|7, 232,3,
|46, 2,2,
|104, 139,2,
|229, 32,2,
|10, 200,2,
|63, 89,3,
|6, 81,3,
|244, 80,2,
|37, 174,2,
|234, 205,3,
|258, 92,2,
|192, 199,3,
|145, 25,2,
|3, 22,3,
|137, 156,2,
|179, 38,3,
|108, 77,3,
|88, 182,3,
|113, 218,2,
|42, 87,3,
|182, 200,3,
|46, 229,3,
|156, 72,3,
|77, 234,3,
|194, 137,3,
|108, 80,2,
|62, 199,3,
|214, 236,2,
|169, 87,3,
|253, 78,2,
|11, 32,3,
|6, 258,2,
|145, 192,2,
|139, 239,3,
|174, 3,2,
|81, 205,2,
|179, 63,3,
|45, 218,3,
|232, 42,3,
|152, 22,2,
|144, 185,3,
|182, 203,2,
|193, 62,2,
|93, 194,3,
|139, 234,2,
|72, 192,2,
|82, 260,3,
|32, 231,3,
|152, 229,2,
|6, 236,3,
|179, 11,3,
|85, 108,3,
|225, 80,3,
|218, 187,3,
|221, 239,3,
|159, 249,2,
|3, 87,3,
|253, 77,3,
|42, 156,3,
|46, 78,3,
|81, 217,3,
|64, 118,3,
|108, 194,2,
|187, 140,2,
|87, 239,3,
|3, 118,2,
|193, 106,3,
|80, 11,3,
|81, 78,3,
|58, 156,3,
|225, 138,3,
|93, 182,3,
|77, 69,3,
|221, 39,3,
|45, 72,3,
|144, 253,2,
|62, 236,3,
|82, 85,3,
|217, 152,2,
|139, 32,3,
|185, 214,2,
|159, 187,3,
|11, 239,3,
|32, 64,3,
|130, 85,2,
|249, 156,3,
|81, 21,3,
|82, 182,2,
|73, 139,3,
|152, 231,3,
|173, 62,3,
|124, 77,3,
|80, 227,3,
|189, 140,3,
|236, 138,3,
|203, 87,2,
|19, 191,2,
|118, 39,2,
|45, 176,3,
|221, 260,3,
|214, 54,3,
|152, 32,3,
|39, 194,3,
|73, 85,3,
|221, 19,3,
|75, 173,2,
|45, 170,2,
|106, 72,2,
|78, 214,3,
|21, 227,3,
|191, 77,2,
|203, 225,3,
|253, 93,3,
|130, 189,2,
|118, 156,2,
|193, 82,3,
|182, 87,3,
|217, 69,2,
|62, 80,3,
|187, 58,3,
|39, 216,2,
|124, 4,2,
|73, 162,3,
|152, 69,2,
|106, 118,3,
|8, 167,2,
|54, 236,3,
|95, 101,3,
|257, 207,2,
|156, 74,2,
|168, 93,3,
|19, 239,3,
|240, 170,3,
|90, 72,2,
|194, 186,3,
|146, 75,3,
|227, 125,2,
|32, 225,3,
|140, 11,2,
|138, 242,3,
|189, 176,3,
|62, 85,3,
|130, 19,2,
|91, 75,3,
|82, 191,3,
|221, 72,3,
|173, 128,2,
|95, 54,3,
|124, 187,3,
|74, 21,2,
|230, 257,2,
|167, 146,3,
|168, 194,2,
|186, 106,3,
|170, 152,3,
|39, 230,3,
|162, 21,3,
|130, 95,3,
|4, 240,3,
|85, 207,3,
|8, 221,3,
|91, 191,3,
|189, 90,2,
|125, 73,2,
|118, 101,3,
|242, 227,3,
|167, 72,2,
|54, 216,3,
|257, 74,3,
|];

meetingsxBusiness = [{1,187,200,226,250,287},
{1,245,286,301,318,334},
{1,280,308,328,346,367,389,398},
{1,454,491},
{1,169,189,202,240,257,274},
{1,252,280,289,321,339,364,382},
{1,315,333},
{1,458,493},
{1,15,29},
{1,275,309,314,337},
{1,363,383,400,415,471},
{1,18,40,54,88,95},
{1,129,150,165},
{1,21,45},
{1,116,139,161},
{1,3,39,61,69,102,126,135},
{1,123,135,156,184,201},
{1,194,220},
{1,429,437,464,475},
{1,160,185,211},
{1,419,442,482,489},
{1,229,264,284,305,313,346,372},
{1,139,159,188,219,231,254},
{1,2,33,48,76,103,118,151,175},
{1,290,315,345},
{1,46,89,104,114},
{1,127,140,156},
{1,4,32},
{1,238,256,276,294,329},
{1,19,28,59,72,100},
{1,200,243},
{1,336,363,380,412,416,434,470},
{1,13,45,60,70,101},
{1,63,86},
{1,49,74,108,115,142,171},
{1,154,166,193},
{1,273,295,320,341},
{1,293,325,348},
{1,406,430,435,453,488},
{1,224,246},
{1,20,31,64,85},
{1,352,371,391},
{1,51,86,100,132,151,177},
{1,5,35,62,77},
{1,370,407,431,439},
{1,324,334,354,392},
{1,21,24},
{1,195,203,236,253,282,294,316},
{1,6,31},
{1,227,255},
{1,16,42,61,83,92},
{1,175,195,206,233,252,277,300},
{1,180,205,229,254},
{1,433,459,480,500},
{1,73,90,124},
{1,191,221,241,253},
{1,144,163,197},
{1,402,452},
{1,2,44,52,73,101},
{1,119,134,170,196,212,223},
{1,154,163},
{1,359,375,409,423,451,474},
{1,240,263,284,292,329,338,369},
{1,394,416},
{1,50,78,92},
{1,258,278,298,312},
{1,97,121,136,172},
{1,285,299},
{1,405,450,456},
{1,10,26,55,74,111,113,137},
{1,67,72},
{1,355,378,407,440,466,478,499},
{1,421,436,455,496},
{1,462,482,501},
{1,438,468,476},
{1,22,30},
{1,322,349,356,390,405,424,443},
{1,362,392,401,441},
{1,98,123,155},
{1,340,358,385,400,425,451},
{1,272,299,312,339,368,393,401,419},
{1,379,410,420,448,477},
{1,168,192,205},
{1,18,44},
{1,384,410,417,436,474,492},
{1,183,211,234,258,266,306,325},
{1,352,361,389,397,428,449},
{1,267,288,326,350},
{1,265,272,288,331,338},
{1,466,495},
{1,476,494},
{1,298,318,343},
{1,376,404,445,463},
{1,12,34,67,70,96,133,149,174},
{1,460,480,490},
{1,145,177,199,217,237,257,267},
{1,122,140},
{1,64,71,99},
{1,242,245,283,304,317},
{1,259,274},
{1,460,497},
{1,106,131,134,164,199},
{1,221,233,265,283,296,316,332},
{1,260,281,295,310,335},
{1,75,97},
{1,399,440,457,486},
{1,12,25,53},
{1,293,330,349,358,384,395},
{1,7,38,60},
{1,179,218,227,248,278},
{1,282,292,326},
{1,93,116,152,159,178},
{1,251,285,290,319,351},
{1,262,266,302,313},
{1,164,186,216},
{1,66,80,107,124,138,157},
{1,193,214,236},
{1,394,398,430,447,457,497},
{1,268,306},
{1,153,173,192,219,222},
{1,55,85},
{1,5,33,49,79},
{1,225,249,277},
{1,424,454,481},
{1,469,496},
{1,11,27,56,89},
{1,239,246},
{1,479},
{1,110,112,142,157,190,209},
{1,417,446,475,490},
{1,204,225},
{1,165,186,212,228,250},
{1,65,87},
{1,131,143,171,187,218},
{1,238,263,270},
{1,242,248,268},
{1,289,328,347,357},
{1,403,427,472},
{1,320,335,366,377,412,421},
{1,396,426,471},
{1,17,34,50,71,105,130,146},
{1,57,82,91},
{1,96,113},
{1,373,408},
{1,345,365},
{1,468,484},
{1,14,26,58,82},
{1,9,42},
{1,23,41,54},
{1,182,217,239,251},
{1,190,216,241,261,271,291},
{1,372,381,411,422,434,456,487},
{1,176,180,213,235,244,276,301},
{1,231,259},
{1,19,32,48,78},
{1,347,355,391,402,418,447,462},
{1,178,215,232},
{1,273,303,314},
{1,388,414},
{1,99,128,155,162,181,202},
{1,81,90},
{1,455,489},
{1,115,146,170,198},
{1,309,321},
{1,63,68,98},
{1,95,132,136},
{1,458,484,499},
{1,463,485},
{1,317,332,361},
{1,439,465,487},
{1,9,28,65,81},
{1,117,150,166,184,208,222},
{1,423,438,479},
{1,327,341,367},
{1,127,144,158,181,210},
{1,431,473},
{1,108,114,149},
{1,8,37},
{1,348,369,383},
{1,91,112,141,160,189},
{1,11,29,53},
{1,350,353,374,404,420,449},
{1,13,27,59},
{1,84,93,118,138,161,198,213},
{1,373,413},
{1,467,486},
{1,386,396,414,452,481},
{1,106,133},
{1,426,446,473,495},
{1,237,260},
{1,429,443,477,494},
{1,269,296,310,344,365,378},
{1,375,399,448},
{1,357,376,395,435,467,485},
{1,307,322},
{1,261,281,297,327},
{1,4,41,47},
{1,214,243},
{1,344,359},
{1,297,319,337,353},
{1,58,84,105,122,147},
{1,167,182,201,224},
{1,374,428,444},
{1,215,230},
{1,286,303,311,342,368},
{1,244,279},
{1,461,492},
{1,23,35},
{1,120,147,173,194,208,226,255},
{1,264,271,307,324},
{1,104,129,153,158,179,209,228,247},
{1,119,148,176},
{1,107,126},
{1,360,413,433,441},
{1,20,24,46,76},
{1,453,500},
{1,393,411,450},
{1,300,323,351,370,386},
{1,169,188},
{1,14,43,56,80,111,130,148,172},
{1,387,406,432,437,478,493},
{1,206,223,247,275,308},
{1,3,38},
{1,185,210},
{1,385,403,444,470},
{1,16,37,66,79},
{1,425,442,469,498},
{1,17,30,47},
{1,305,330,336,354,381},
{1,483,488},
{1,380,422},
{1,333,371},
{1,6,43},
{1,302,323,342,356,377},
{1,8,25},
{1,360,382,409,427,459},
{1,83,102},
{1,141,174},
{1,366,387,397,415,464},
{1,465,491},
{1,7,39},
{1,472,498},
{1,52,69,103},
{1,311,340},
{1,183,207,235,249,287},
{1,125,152,167,196,203},
{1,120,145,162,191,220,230,256,270},
{1,51,75},
{1,388,418},
{1,109,121,143},
{1,10,40},
{1,77,94,128,137,168,197,204,234},
{1,362,390,408,445},
{1,279,304,331},
{1,57,87,94,125},
{1,22,36,62,88,110,117},
{1,461,483,501},
{1,343,364},
{1,68,109},
{1,379,432},
{1,207,232,262,269,291},
{1,15,36}];

nMeetingsBusiness = [5,5,7,2,6,7,2,2,2,4,5,5,3,2,3,7,5,2,4,3,4,7,6,8,3,4,3,2,5,5,2,7,5,2,6,3,4,3,5,2,4,3,6,4,4,4,2,7,2,2,5,7,4,4,3,4,3,2,5,6,2,6,7,2,3,4,4,2,3,7,2,7,4,3,3,2,7,4,3,6,8,5,3,2,6,7,6,4,5,2,2,3,4,8,3,7,2,3,5,2,2,5,7,5,2,4,3,6,3,5,3,5,5,4,3,6,3,6,2,5,2,4,3,3,2,4,2,1,6,4,2,5,2,5,3,3,4,3,6,3,7,3,2,2,2,2,4,2,3,4,6,7,7,2,4,7,3,3,2,6,2,2,4,2,3,3,3,2,3,3,4,6,3,3,5,2,3,2,3,5,3,6,3,7,2,2,5,2,4,2,4,6,3,6,2,4,3,2,2,4,5,4,3,2,5,2,2,2,7,4,8,3,2,4,4,2,3,5,2,8,6,5,2,2,4,4,4,3,5,2,2,2,2,5,2,5,2,2,5,2,2,2,3,2,5,5,8,2,2,3,2,8,4,3,4,6,3,2,2,2,5,2];

forbidden = [{0,22,24},
{0,1,22},
{0},
{0,1,2,3,4,5,6,7,8,9,10,11,12,13,14,15,16,17,18,19,20,21,23},
{0,16},
{0,8},
{0,8},
{0,1,2,3,4,5,6,7,8,9,10,11,12,13,14,15,16,17,18,19,20,21,23},
{0},
{0,8,17},
{0,1,2,3,4,5,6,7,8,9,10,11,12,13,14,15,16,21},
{0,20},
{0},
{0,15,22},
{0,11,20},
{0,15,17,24},
{0,3,13,14,23,24},
{0,1,13,14},
{0,14},
{0,4,5,20},
{0,1,2,3,4,5,6,7,8,9,10,11,12,13,14,15,16,17,18,22},
{0,1,19,20},
{0,22},
{0,10,23},
{0,12},
{0,8,23},
{0,5,21},
{0,16},
{0,9},
{0,12,18,23},
{0,4},
{0,13},
{0,17},
{0,10,11,13,22},
{0,10,15,23},
{0,6,19},
{0,2,22},
{0,8},
{0,1,2,3,4,5,6,7,8,9,10,11,12,13,14,15,16,17,18,23},
{0,13,17},
{0,15},
{0,21},
{0,16},
{0,9,13,15,20},
{0,1,2,3,4,5,6,7,8,9,10,11,12,13,14,18,22,23,24},
{0,1,6},
{0,8},
{0,23},
{0,4,8},
{0},
{0,22},
{0,16},
{0,22,24},
{0,1,2,3,4,5,6,7,8,9,10,11,12,13,14,15,16,17,21},
{0,7,14,19},
{0,4},
{0,4},
{0,1,2,3,4,5,6,7,8,9,10,11,12,13,14,15,16,17,18,20,22,23,24},
{0,10,11},
{0,21},
{0,10,23},
{0,1,2,3,4,5,6,7,8,9,10,11,12,13,14,15,16,22},
{0,6},
{0,1,2,3,4,5,6,7,8,9,10,11,12,13,14,15,16,17,19,21,22,23,24},
{0,8,14},
{0,1},
{0,24},
{0,9},
{0,1,2,3,4,5,6,7,8,9,10,11,12,13,14,15,16,17,18,20,23,24},
{0,9,15,21},
{0,7},
{0,1,2,3,4,5,6,7,8,9,10,11,12,13,20},
{0,1,2,3,4,5,6,7,8,9,10,11,12,13,14,15,16,17,18,19,23},
{0,4,7,16},
{0,11},
{0},
{0,9},
{0,1,2,3,4,5,6,7,8,9,10,11,12,13,14,15,16,20,22,24},
{0,11,16},
{0},
{0,2,10},
{0,1,2,3,4,5,6,7,8,9,10,11,12,13,14,15,16,17,22,24},
{0,11,15},
{0,18},
{0,1,2,3,4,5,6,7,8,9,10,11,12,13,14,15,16,22},
{0,19},
{0,23},
{0,6},
{0,24},
{0,1,2,3,4,5,6,7,8,9,10,11,12,13,14,15,16,17,18,19,20,21,23},
{0,10},
{0,2,11,13,20},
{0,1,2,3,4,5,6,7,8,9,10,11,12,13,14,15,16,20,24},
{0,9,15},
{0,12},
{0,14},
{0,8,17},
{0,24},
{0,9,19},
{0,11,24},
{0,1,2,3,4,5,6,7,8,9,10,11,12,13,14,15,16,17,18,19,20,21,23},
{0,1,24},
{0,5,17,23},
{0,4,21},
{0,13,18},
{0,1,2,3,4,5,6,7,8,9,10,11,12,13,14,15,16,20,24},
{0,7},
{0,5,7},
{0,11,22},
{0,21,24},
{0},
{0,2},
{0},
{0,3},
{0,12,17},
{0},
{0},
{0,1,2,3,4,5,6,7,8,9,10,11,12,13,14,15,16,17,23},
{0,7,23,24},
{0,2},
{0,1,2},
{0,15},
{0,1},
{0,1,2,3,4,5,6,7,8,9,10,11,12,13,14,15,16,17,18,21,24},
{0,1,2,3,4,5,6,7,8,9,10,11,12,13,14,15,16,17,18,19,20,21,23},
{0},
{0,5,13,15},
{0,2,12,13,24},
{0},
{0,1,2,3,4,5,6,7,8,9,10,11,12,13,14,15,16,17,18,22},
{0,6,8,12},
{0,6,13},
{0,15,21},
{0,12,13,15},
{0,19,23},
{0,4,5,18},
{0},
{0,1,2,3,4,5,6,7,8,9,10,11,12,13,14,15,16,17,18,21,23,24},
{0,7},
{0,1,2,3,4,5,6,7,8,9,10,11,12,13,14,15,16,17,18,21,24},
{0},
{0,15,24},
{0,16},
{0,1,2,3,4,5,6,7,8,9,10,11,12,13,14,15,16,18,20,21,22,23,24},
{0,5},
{0,20},
{0,15},
{0,14,17},
{0,14},
{0,3,7,23},
{0,1,4,20},
{0,4,6,8,13},
{0,21},
{0},
{0,22},
{0},
{0,16,18},
{0,20},
{0,1,2,3,4,5,6,7,8,9,10,11,12,13,14,15,16,17,19,21,22,23,24},
{0,19,24},
{0,2,13,24},
{0,1,2,3,4,5,6,7,8,9,10,11,12,13,14,15,16,17,18,19,20,21,23},
{0,20},
{0,5},
{0,6,8,18},
{0,2,14,15,21},
{0,20},
{0,7,10},
{0,13},
{0,12,20},
{0,8},
{0,5,17},
{0,1,2,3,4,5,6,7,8,9,10,11,12,13,14,15,16,17,18,19,22},
{0,18},
{0,17},
{0,1,2,3,4,5,6,7,8,9,10,11,12,13,14,15,16,17,18,19,21,23,24},
{0},
{0,10,22},
{0,15},
{0,3,16,23},
{0,8},
{0,2},
{0,16,17,18},
{0},
{0,1,2,3,4,5,6,7,8,9,10,11,12,13,14,15,16,18,20,21,22,23,24},
{0,6,12,13},
{0,1,2,3,4,5,6,7,8,9,10,11,12,13,14,15,16,17,22},
{0,18},
{0,1,2,3,4,5,6,7,8,9,10,11,12,13,14,15,16,17,18,19,23},
{0,20,21},
{0,1,2,3,4,5,6,7,8,9,10,11,12,13,14,15,16,17,18,22},
{0,20,22,24},
{0,1,2,3,4,5,6,7,8,9,10,11,12,13,14,15,16,17,20,23,24},
{0,1,2,3,4,5,6,7,8,9,10,11,12,13,14,20},
{0,11},
{0},
{0,21},
{0,18},
{0,6,21},
{0,10},
{0,9,14,21},
{0,1,14,18,19,23},
{0,1,2,3,4,5,6,7,8,9,10,11,12,13,14,15,16,17,19,22,23,24},
{0,19},
{0,1},
{0,18,24},
{0,1,2,3,4,5,6,7,8,9,10,11,12,13,14,15,16,17,18,19,20,21,23},
{0,16},
{0,1,15,19},
{0,23},
{0},
{0,5,17,22},
{0,12,23},
{0,1,2,3,4,5,6,7,8,9,10,11,12,13,14,18,22,23,24},
{0,14,15},
{0,1,2,3,4,5,6,7,8,9,10,11,12,13,14,15,16,17,18,19,20,21,23},
{0,1,2,3,4,5,6,7,8,9,10,11,12,13,14,15,16,17,20,23,24},
{0,11,13},
{0},
{0,13},
{0,1,2,3,4,5,6,7,8,9,10,11,12,13,14,15,16,22},
{0,3,5,8,23},
{0,4,10,13,16},
{0,15,19},
{0,1,2,3,4,5,6,7,8,9,10,11,12,13,14,15,16,20,23,24},
{0,22},
{0,1,2,3,4,5,6,7,8,9,10,11,12,13,14,15,16,17,18,19,23},
{0,9,13,18,20},
{0,9,12},
{0,8,13},
{0,1,2,3,4,5,6,7,8,9,10,11,12,13,14,15,16,17,19,21,22,23,24},
{0,3,12,23},
{0,12,23},
{0,7,21},
{0,4,21,24},
{0,1,2,3,4,5,6,7,8,9,10,11,12,13,14,15,16,21},
{0,2},
{0,11,21},
{0,1,2,3,4,5,6,7,8,9,10,11,12,13,14,15,16,21},
{0,1,2,3,4,5,6,7,8,9,10,11,12,13,14,15,16,17,18,19,20,21,23},
{0,9,13},
{0,1,2,3,4,5,6,7,8,9,10,11,12,13,14,15,16,17,18,19,20,21,23},
{0,19,24},
{0,7,14,17},
{0,3,15,18,20},
{0,14,16,21},
{0,17},
{0},
{0,1,2,3,4,5,6,7,8,9,10,11,12,13,14,15,16,17,19,21,22,23,24},
{0},
{0,23},
{0},
{0,1,2,3,4,5,6,7,8,9,10,11,12,13,14,15,16,20,24},
{0,11,16,17,21,23},
{0},
{0,9},
{0,14,17},
{0,22},
{0,2},
{0,1,2,3,4,5,6,7,8,9,10,11,12,13,14,15,16,17,19,21,22,23,24},
{0,3,7,17},
{0,8,11,13,15}];

fixed = [0,0,0,0,0,0,0,0,0,0,0,0,0,0,0,0,0,0,0,0,0,0,0,0,0,0,0,0,0,0,0,0,0,0,0,0,2,0,0,0,0,0,0,0,0,0,0,0,3,0,0,0,0,0,0,0,3,0,0,0,0,0,0,0,0,0,0,0,0,0,0,0,0,0,0,0,0,0,0,0,0,0,0,0,0,0,0,0,0,0,0,0,0,0,0,5,0,0,0,0,0,0,0,0,0,0,0,0,0,0,0,0,0,0,0,0,0,0,0,0,0,0,0,0,0,0,0,0,0,0,0,0,0,0,0,0,0,0,0,0,0,0,0,0,0,0,7,0,0,0,0,0,0,0,0,0,0,0,0,0,0,0,0,0,8,0,0,0,0,0,0,0,0,0,0,0,0,0,0,0,0,0,9,0,0,0,0,0,0,0,0,0,0,0,0,0,0,0,0,10,0,0,0,10,0,0,10,0,0,0,10,0,0,0,0,0,0,0,0,0,0,0,0,0,0,0,0,0,0,0,0,0,0,0,0,0,0,0,0,0,0,0,0,0,0,0,0,0,0,0,0,0,0,0,0,0,0,0,0,0,0,0,0,0,0,0,0,0,0,0,0,0,0,0,0,0,13,0,0,0,0,0,0,0,0,0,0,14,0,0,0,0,0,0,0,0,0,0,0,0,0,0,0,0,0,0,0,0,15,0,15,0,0,0,0,0,0,0,0,0,0,0,0,0,0,0,0,0,0,0,16,0,0,0,0,0,0,0,0,0,0,0,0,0,0,0,0,0,0,0,0,0,0,0,0,0,0,0,0,0,0,0,0,0,0,0,0,0,0,0,17,0,0,0,0,0,0,0,0,0,0,0,0,0,0,0,0,0,18,0,0,0,0,0,0,0,0,0,0,0,0,0,19,0,0,0,0,0,0,0,0,0,0,0,0,0,0,0,0,0,0,0,0,0,20,0,0,0,0,0,0,0,0,0,0,0,0,0,0,0,0,0,0,0,0,0,0,0,0,0,0,0,0,0,0,0,0,22,0,0,0,0,0,0,0,0,0,0,0,0,0,0,0,0,0,0,0,0,0,0,0,0,0,0,0,0,0,24,0,0,0,0,0,0,0,0,0,0,0,0];

precedences = [{},
{},
{},
{},
{},
{},
{},
{},
{},
{},
{},
{},
{},
{},
{},
{},
{},
{},
{},
{},
{},
{},
{2,4,5,6,7,9,10,14,15,17,20,21},
{2,6,8,10,11,12,14,15,19,20,22},
{1,2,7,9,14,19,20,21,22},
{3,5,8,10,12,20},
{1,2,6,7,8,11,12},
{2,3,4,5,8,11,12,17,19},
{1,3,6,8,9,10,13,19,20},
{2,6,7,10,11,15,16,17,18,19,21},
{5,7,9,12,14,15,18,19,21},
{7,8,9,10,11,16,21},
{2,4,9,11,13,14,17,19},
{1,3,5,6,7,8,10,11,12,13,14,19,21,22},
{2,6,8,12,14,15,18,21},
{2,4,5,8,10,11,15,18,19,20,21},
{5,9,15,17,21,22},
{2,4,7,10,12,14,19,22},
{3,7,10,14,16,20,21},
{1,3,4,5,6,7,8,11,13,14,15,17,18,19,21,22},
{1,3,4,9,10,11,13,14,15,16,19,20,22},
{1,2,7,10,11,12,13,16,17,19,20},
{5,7,8,9,10,11,12,14,17,18,19},
{2,4,6,8,10,12,14,15,18,19,20,21,22},
{3,6,7,8,10,12,14,18,21,24,27,28,32,34,38,41,43},
{1,3,5,6,8,9,12,15,20,23,29,31,32,35,37,39,40,41,42,43,44},
{8,9,12,14,15,16,17,19,20,21,22,24,27,30,32,35,37,42},
{2,3,5,7,8,9,10,14,15,16,18,20,21,23,26,28,32,33,38,39,40},
{2,3,5,7,12,13,26,30,32,34,35,36,40,42,44},
{4,5,7,11,12,22,29,30,38,40,42,43},
{1,2,5,6,7,8,13,14,15,16,19,23,33,39,41,42,43,44},
{1,2,3,8,9,12,13,14,16,18,20,21,22,28,29,30,32,33,39,40,42,43,44},
{1,2,4,6,10,11,13,14,18,19,20,24,25,26,27,29,30,33,39,40,41,43},
{1,3,8,10,12,19,21,22,24,25,27,29,34,35,36,37,39,43,44},
{1,2,10,12,16,20,22,29,31,33,35,39,40},
{1,2,3,7,9,12,14,16,17,18,20,24,25,27,30,31,32,38,42},
{8,10,13,15,16,18,19,22,24,25,26,27,29,34,36,39,44},
{1,2,5,6,7,15,18,19,21,23,28,29,32,39,42,43,44},
{1,2,5,12,13,14,16,17,20,21,22,23,24,32,34,35,38,39,44},
{2,3,4,6,14,24,28,32,38,42},
{1,4,14,17,19,21,24,25,28,32,34,37,38,41,44},
{2,3,4,7,8,9,11,13,14,15,16,17,20,21,25,27,28,32,34,35,37,38,42,44},
{3,4,5,6,7,10,13,19,20,23,25,28,32,34,36,37,39,43,44},
{5,7,10,11,14,16,20,22,24,29,31,37,43,44},
{2,4,6,7,9,10,11,14,15,18,21,23,27,28,33,34,41,42,44},
{5,6,8,10,11,12,22,23,27,30,32,37,39},
{4,10,14,26,29,30,32,33,35,39,40,41,42,43,44,46,52,55,56,57,58,60,61,63},
{2,3,5,7,8,10,13,28,31,34,35,41,46,47,52,53,58,62,65,66},
{2,5,9,14,15,18,19,20,23,26,29,31,35,38,39,40,45,46,48,52,55,61,62,64,65,66},
{1,6,10,14,16,17,19,23,26,28,29,30,33,42,44,45,46,47,49,50,52,62,63,64,66},
{6,7,10,13,16,19,20,21,25,27,28,31,33,36,37,39,41,42,49,50,52,54,57,61,63,64,65},
{2,3,6,7,10,12,13,14,15,22,24,25,30,31,34,36,38,40,43,50,51,56,58,62,64,65},
{1,2,5,6,10,11,20,21,22,24,27,28,30,34,39,42,46,53,55,57,58,61,65},
{2,4,8,10,18,19,20,22,26,29,30,34,36,37,40,43,45,56,57,59,60,61},
{2,3,7,8,10,12,13,14,16,18,22,23,27,28,30,31,33,36,37,38,39,42,45,46,48,49,51,52,54,55,58,63},
{4,6,7,8,11,14,18,24,25,30,33,37,38,45,46,47,55,57,58,65,66},
{7,10,16,18,19,25,26,28,30,31,32,33,38,40,41,43,44,46,48,52,57,60,61,62},
{1,3,4,5,8,9,10,13,14,16,17,19,21,22,23,26,32,33,36,37,39,42,43,45,48,49,51,52,53,54,55,56,58,59,60,61,63,65,66},
{2,3,4,5,8,10,11,17,18,22,24,28,29,30,33,35,36,39,41,48,50,51,55,57,59,60,61,62,63,64},
{8,16,18,23,24,25,28,29,33,44,50,53,58,61,62,63,66},
{1,2,4,9,10,14,16,17,18,19,21,22,26,28,29,34,35,36,39,40,48,52,54,55,56,62,65},
{2,3,5,6,9,10,14,15,18,19,21,26,28,33,38,43,44,47,49,55,59,61,64,65},
{1,3,4,5,6,8,11,15,19,23,24,26,28,30,31,32,36,37,41,42,43,44,45,46,49,50,52,53,55,56,57,59,60,62},
{2,3,5,6,7,8,9,11,12,15,16,17,24,25,26,27,28,29,30,31,35,36,37,38,41,42,43,44,46,47,51,53,62,64,65},
{8,10,11,18,20,24,27,28,29,31,32,33,34,40,41,43,50,53,54,56,59,60,64},
{3,5,6,8,9,12,14,19,20,22,29,31,32,33,35,36,37,39,41,42,44,45,49,51,53,54,59,62},
{1,7,8,13,15,17,23,26,27,35,37,39,43,47,49,51,53,55,57,58,59,62,64},
{2,3,5,8,12,15,21,22,23,24,29,30,32,36,38,39,42,45,49,51,52,55,59,62,64,66},
{1,2,6,7,9,13,19,25,26,29,32,38,42,44,48,51,54,56,61,62,71,73,74,77,82,85,86,87,88},
{5,6,8,12,14,16,17,24,28,30,39,42,43,45,46,47,53,54,55,56,58,59,61,62,63,65,66,68,69,72,74,77,78,81,82,83,84,85,86,88},
{2,6,9,13,14,15,18,21,22,23,25,26,27,29,30,31,40,44,45,46,47,49,50,55,57,64,67,68,70,74,75,77,84,86,87,88},
{1,2,4,9,12,13,16,17,18,20,22,23,36,38,39,42,43,44,48,49,52,55,57,59,60,62,66,68,71,72,73,74,75,78,80,81,86,87,88},
{3,4,6,11,17,18,19,21,28,30,33,34,35,36,39,40,47,48,50,51,53,58,59,60,61,62,63,65,66,67,68,69,71,72,73,74,75,77,78,81,82,84,85,86,88},
{2,5,6,7,8,12,13,15,18,20,21,22,23,25,26,27,30,34,35,44,48,49,50,51,54,57,59,61,63,64,65,68,70,71,76,82,83,87},
{1,2,5,7,8,10,11,13,15,18,21,28,31,32,33,34,35,37,38,40,43,45,46,50,51,52,56,57,59,64,69,74,78,79,83,84,85,86,87},
{1,4,5,7,8,11,16,17,18,19,20,25,26,33,36,39,43,50,51,54,55,59,61,62,64,68,71,76,78,81,83,84},
{1,2,4,5,6,8,11,12,13,18,20,22,30,33,37,40,41,44,46,50,53,54,56,58,61,63,72,79,82,83},
{2,3,4,5,6,7,10,13,16,17,20,22,23,24,27,37,38,39,41,45,46,49,51,53,55,56,57,61,62,68,72,76,79,82,83,84,85,86},
{2,3,6,11,12,14,15,17,26,28,29,32,44,45,47,48,51,53,54,57,60,61,65,67,68,71,84,85,86},
{3,4,6,10,13,17,23,24,25,26,31,33,36,38,39,40,45,46,48,50,51,54,58,59,63,66,67,68,69,71,75,79,83,84,85,86},
{7,8,10,15,16,23,25,30,31,35,36,37,38,39,40,41,42,43,46,50,55,59,61,67,68,71,72,74,78,79,80,81,87,88},
{1,2,3,7,12,17,18,21,22,24,25,26,29,37,38,40,43,44,46,47,52,53,55,57,62,64,65,67,68,73,77,81,84,85,87},
{1,3,4,5,9,10,12,13,14,16,21,23,24,27,30,31,33,34,37,39,45,46,47,49,51,56,58,61,62,63,69,71,72,76,81,82,83,84,86},
{5,6,20,21,22,27,31,33,34,41,44,49,50,53,56,67,71,76,79,83},
{2,3,4,6,7,12,13,16,17,18,21,22,23,28,29,31,33,34,35,37,38,39,40,47,48,49,54,57,60,61,62,63,64,65,66,71,72,82,83,85},
{1,2,3,6,13,14,17,19,20,21,23,25,27,28,29,33,34,36,37,39,41,42,43,45,47,50,51,52,54,55,61,62,63,64,65,66,69,70,71,72,74,75,83},
{3,5,9,13,20,25,27,28,30,31,34,36,41,42,43,46,48,51,54,60,61,65,67,70,72,77,79,81,85,86,88},
{1,8,10,11,13,15,22,23,25,27,28,30,32,35,36,39,40,43,46,48,54,55,56,63,70,72,75,76,78,81,82,86,87},
{1,2,5,6,7,11,17,19,20,21,22,23,25,26,28,32,33,35,45,49,53,56,58,64,65,75,77,78,79,81,82,83,85},
{2,4,8,10,11,12,13,16,19,22,23,26,27,31,32,33,35,37,41,42,44,45,46,47,48,49,50,52,60,61,68,71,72,73,75,76,79,81,82,86,87},
{1,5,7,10,13,15,18,27,28,34,42,43,44,47,48,51,54,56,57,59,60,62,64,71,74,76,80,81,82,84,87,88,93,94,95,96,97,98,109,110},
{2,6,8,9,11,15,22,24,30,31,34,37,39,49,51,55,59,60,63,64,66,67,70,73,75,76,82,89,92,93,96,97,101,104,105,106},
{6,10,11,15,16,17,20,21,22,26,29,31,33,34,39,40,46,47,48,49,52,54,58,60,63,66,70,72,74,75,77,79,81,82,87,91,96,98,100,102,106,109},
{1,4,6,9,10,11,24,26,29,31,33,35,37,38,39,43,44,46,47,52,54,57,60,65,68,71,72,76,77,80,81,83,87,88,89,90,92,93,95,96,97,99,101,102,104,105,107},
{2,3,4,8,10,11,13,17,18,20,21,26,27,28,29,30,31,35,40,41,44,48,49,52,55,59,60,66,70,73,77,78,84,85,86,90,92,93,97,98,104,105,106,109},
{2,5,7,10,11,12,13,14,19,21,23,25,26,31,32,35,37,39,40,42,45,48,49,50,52,55,57,62,63,64,70,71,72,76,79,83,88,89,93,95,102,105},
{1,4,8,9,12,16,18,27,30,31,35,38,43,44,45,49,52,53,55,56,59,63,68,72,79,80,83,84,85,86,87,94,95,96,99,102,103,109,110},
{2,3,8,11,16,18,25,30,32,35,38,39,46,50,52,55,57,58,59,65,69,75,78,79,82,84,85,87,91,100,102,105,107,108,109},
{1,5,8,9,10,12,13,14,15,17,19,20,22,23,26,27,31,33,34,37,38,39,40,41,42,43,48,56,57,62,69,72,75,78,79,87,89,90,92,96,97,101,105,109},
{2,3,5,6,8,9,14,16,18,20,25,28,31,40,42,43,45,52,54,55,56,58,60,61,64,66,68,69,70,71,72,74,76,77,78,80,82,88,91,92,94,95,99,102,103,104,107,108,109,110},
{2,4,8,11,14,15,16,19,20,21,22,23,24,28,31,33,34,35,36,41,43,44,46,49,50,56,57,58,60,64,66,67,76,79,80,82,83,84,87,88,89,90,93,94,97,100,102,106,109},
{1,3,4,8,11,19,21,24,27,28,30,31,32,33,34,38,40,44,51,52,53,54,64,68,73,74,77,78,80,83,88,90,96,99,100,101,103,105,107,110},
{2,3,6,7,8,13,18,25,31,33,35,36,40,48,52,53,55,65,70,77,84,87,96,97,99,102,104,109,110},
{3,6,10,11,13,19,20,21,23,27,28,29,31,40,42,47,48,51,58,61,65,68,71,74,76,79,81,82,84,85,86,89,90,92,94,95,100,101,102,107},
{3,5,6,7,8,9,19,20,21,25,29,33,34,40,43,49,51,53,54,55,57,61,64,65,66,67,68,69,73,75,76,77,80,84,87,89,90,92,93,94,96,97,99,100,102,103,105,106,110},
{1,6,7,9,11,12,13,14,17,19,21,22,24,27,29,31,33,36,37,41,42,48,49,53,56,58,62,64,65,70,71,75,78,79,80,86,87,88,89,91,93,97,102,104,105,109},
{1,2,4,7,8,11,15,18,19,24,25,26,28,30,31,33,37,39,43,46,48,49,53,56,62,63,67,69,71,72,73,74,77,83,85,86,87,89,90,93,96,97,99,100,103,104,108,109,110},
{2,3,4,5,6,7,9,11,13,14,15,17,21,22,23,25,27,33,39,45,46,49,50,54,56,57,59,62,65,66,68,69,70,72,75,79,82,90,93,95,101,102,105,107,108},
{1,2,3,6,8,12,14,16,23,26,32,36,37,38,39,43,45,46,49,59,60,65,68,69,70,77,79,80,85,86,91,93,97,98,99,104,106},
{1,9,13,16,22,24,26,28,29,34,36,39,41,45,52,55,56,57,59,65,67,68,70,73,76,79,80,82,85,86,89,90,92,96,97,99,100,105},
{3,5,6,7,15,16,21,22,23,24,27,28,31,32,39,43,48,50,51,54,60,61,65,70,75,76,80,86,87,88,90,93,94,95,97,99,100,101,103,104,105,110},
{1,4,5,8,13,15,17,20,23,24,28,29,30,32,33,37,38,39,41,45,48,49,54,56,57,58,60,61,65,67,68,69,70,71,73,76,77,78,81,82,84,87,95,98,102,103,105,106,107,108},
{1,2,3,4,5,6,9,12,15,16,24,32,33,34,38,39,44,45,50,54,59,60,61,62,63,66,67,68,71,73,74,75,78,79,80,98,99,100,101,102,103,104,108,111,114,115,117,120,124,126,128,129,131},
{1,5,12,13,15,17,19,23,30,38,41,43,44,47,48,50,52,63,66,67,68,69,71,73,75,81,82,85,87,88,89,90,99,101,102,105,106,107,109,111,113,117,120,122,125,127,128,132},
{3,7,8,9,14,15,19,25,26,29,30,31,35,36,39,40,42,43,44,52,54,55,56,62,64,69,72,73,74,77,78,79,81,82,84,87,89,90,92,95,98,103,105,109,110,111,113,116,117,123,124,125,127,131,132},
{1,2,10,12,13,14,15,16,18,24,25,27,28,32,35,36,39,44,48,52,57,58,60,61,62,65,72,73,74,75,76,78,79,81,83,85,89,90,91,92,93,96,97,98,102,109,120,122,126,128,132},
{4,7,8,9,10,11,12,17,20,23,24,25,26,29,34,35,40,42,44,48,49,51,52,53,56,57,61,62,64,67,69,75,76,80,81,83,85,91,95,98,102,108,112,118,119,122,123,125,126,129},
{1,2,3,5,6,9,10,14,16,18,21,22,23,25,26,27,29,32,34,35,41,43,44,47,49,51,58,59,60,61,63,66,69,70,79,80,81,85,88,89,90,91,92,97,100,102,103,106,110,112,114,115,116,117,121,123,124,125,127,128,130,131},
{4,7,8,9,15,16,18,21,22,23,25,26,28,30,32,33,36,37,39,42,45,49,50,51,52,60,61,63,67,69,73,75,78,79,80,85,88,89,91,95,99,101,103,107,108,110,114,115,116,118,120,123,124,126,131},
{2,7,9,10,13,14,19,21,23,24,28,33,34,38,40,41,42,43,45,47,48,53,54,58,61,62,65,66,71,75,76,78,80,86,90,93,97,98,102,109,111,116,119,121,122,123,124,125,127,128},
{1,2,7,11,12,16,17,19,20,22,23,26,27,36,37,38,39,41,45,46,48,51,52,53,57,58,60,61,63,64,66,68,73,74,81,84,85,87,89,93,95,97,98,101,102,107,109,111,112,113,118,119,120,121,122,123,126,127,129,130,131},
{2,3,4,8,9,17,21,23,28,29,30,32,36,39,40,45,49,52,53,56,59,60,61,64,66,67,68,70,76,77,78,81,86,97,107,109,111,114,118,121,122,125,127,131},
{1,5,9,11,12,14,16,18,19,21,22,23,27,28,31,32,34,36,39,42,44,45,47,48,49,51,52,53,55,56,58,60,65,66,68,70,72,76,77,79,81,82,83,84,87,88,89,90,99,102,104,105,110,111,112,113,114,121,123,125,126},
{2,3,4,5,7,11,14,16,17,21,22,23,26,28,30,31,34,36,37,38,41,43,44,46,47,49,50,51,52,54,56,61,62,64,65,67,70,73,74,76,78,81,82,92,96,100,103,105,108,110,112,113,117,123,124,125,126,127,129,132},
{1,2,4,8,9,10,15,17,21,23,34,38,39,40,43,44,48,52,53,55,56,57,60,62,64,66,67,68,69,70,73,78,90,91,93,96,98,100,103,109,110,115,116,122,123,125,130},
{1,2,3,4,6,9,11,14,15,16,19,21,22,24,28,29,32,34,39,41,44,48,49,51,59,61,64,65,66,68,70,71,74,76,81,82,83,85,87,88,89,91,92,93,97,100,107,115,118,119,122,126,128,130},
{3,6,7,10,11,12,14,15,18,20,22,23,33,34,37,38,40,43,44,45,47,48,50,51,53,54,56,58,61,65,70,71,75,76,85,88,90,91,95,100,105,111,112,115,118,122,123,124,125,129,130},
{6,7,9,10,11,12,16,17,21,24,27,30,31,32,35,36,37,40,46,47,50,54,56,59,60,62,63,64,66,67,69,72,73,74,77,78,80,84,88,94,96,98,101,104,106,110,111,113,116,119,122,124,125,126,130,132},
{5,7,8,9,13,14,16,18,20,22,23,24,29,31,35,36,37,39,44,46,47,57,60,61,63,65,71,73,78,82,83,85,86,87,88,92,95,98,101,106,109,110,111,112,115,118,122,123,124,127,129,132},
{1,2,3,4,6,7,8,11,16,17,18,20,21,23,27,28,29,32,34,35,36,46,47,51,52,54,55,57,58,66,72,73,74,77,79,82,85,86,90,92,93,94,95,96,100,101,102,104,105,108,109,111,112,116,117,120,121,122,123,127},
{2,3,7,8,10,11,15,17,18,21,22,23,27,28,31,34,35,36,37,38,40,42,43,46,51,53,54,57,58,59,60,64,66,67,68,71,76,77,80,81,82,85,88,92,95,96,97,102,107,114,118,119,124,127,132},
{1,3,8,12,16,17,21,22,24,26,27,28,30,31,34,35,36,37,41,46,47,51,52,54,58,61,62,65,66,67,68,69,70,71,72,74,75,76,79,92,93,96,97,103,106,108,109,110,111,116,117,120,123,124,126,129,131},
{1,3,4,8,9,10,12,16,18,21,24,28,29,33,40,43,45,50,53,55,56,57,60,61,63,64,67,68,73,76,78,81,82,83,86,87,88,89,91,93,94,97,98,99,106,111,113,115,121,124,125,126,130,131},
{1,5,6,7,9,16,18,20,21,27,28,29,32,35,37,38,39,40,41,46,48,50,51,52,55,57,58,60,65,67,68,70,71,72,74,76,82,83,87,100,101,104,108,111,112,115,118,121,126,128,129,130,132},
{4,8,10,12,13,19,20,21,22,24,28,29,39,40,44,45,46,47,48,49,52,56,57,58,63,66,67,68,71,74,75,78,79,80,81,84,85,86,87,88,89,90,92,93,95,98,99,104,106,109,113,117,118,119,120,125,126,127,128,130,132,133,135,138,141,144,145,147,150,151,154},
{7,12,15,17,26,27,29,31,32,33,37,38,40,42,46,54,56,57,58,63,65,67,68,69,74,75,76,81,82,85,87,88,89,93,103,105,108,110,114,116,120,124,127,130,133,136,146,147,149,153},
{3,9,10,11,15,16,17,18,19,23,27,29,35,37,39,40,42,43,47,49,54,56,58,60,61,63,64,66,67,73,77,78,79,82,83,86,88,91,93,101,104,108,109,111,115,121,123,129,130,134,135,137,138,140,142,148,149,150,151},
{12,13,16,18,19,21,22,23,24,26,29,30,32,33,37,41,42,47,48,49,55,57,58,60,62,63,65,69,73,74,75,77,79,80,84,87,88,89,91,93,94,97,98,101,104,105,107,108,114,115,120,122,123,126,133,135,137,138,141,142,143,145,148,151,153,154},
{3,5,6,9,11,12,15,18,21,25,26,28,31,33,37,39,41,42,43,45,46,51,55,56,59,62,65,68,70,71,72,76,77,83,84,85,88,91,92,93,95,96,105,106,109,110,117,120,123,130,135,138,139,140,141,142,143,144,145,152,154},
{1,3,4,5,7,9,10,12,13,14,16,18,20,21,22,23,25,29,30,33,35,36,42,43,45,46,47,48,50,53,54,57,59,62,69,75,78,79,80,85,88,90,92,93,100,104,105,107,110,111,112,114,122,126,130,135,136,137,138,139,142,144,145,147,148,149,151,152},
{2,3,4,5,7,10,12,14,15,16,19,21,23,26,28,29,34,36,37,39,40,41,44,45,46,56,60,61,64,68,69,70,71,74,83,85,86,89,90,93,100,101,102,104,114,117,118,126,129,132,133,135,138,140,142,145,146,150,151,152,154},
{5,10,11,14,16,18,19,20,21,22,26,27,34,35,37,39,41,42,45,46,48,49,51,53,54,55,59,60,69,71,76,82,88,92,94,95,98,100,102,103,106,111,114,123,124,125,127,128,139,140,141,143,144,148,149,150,151,152},
{1,2,5,9,10,11,12,13,14,17,21,22,24,26,28,34,37,38,39,40,41,44,47,49,53,56,59,62,67,69,72,76,78,80,81,88,91,93,94,97,101,103,104,106,107,108,116,120,121,122,124,125,128,133,134,138,141,142,144,148,150,153,154},
{1,5,11,13,14,18,19,23,27,29,33,36,43,50,51,53,59,60,61,65,67,68,70,74,80,82,86,89,91,93,96,98,99,102,104,105,106,107,108,109,112,116,117,123,130,131,137,141,143,144,145,146,147,151,152,153},
{2,4,9,12,14,16,20,21,24,25,26,32,37,43,45,46,47,52,53,58,64,66,68,69,70,72,79,82,86,88,90,92,93,100,102,106,107,108,109,111,112,117,119,121,122,130,133,134,135,136,137,139,141,143,148,154},
{2,3,4,5,8,9,11,12,15,20,27,29,30,31,33,35,40,42,47,49,50,51,54,62,63,65,66,71,73,74,80,81,82,85,86,94,99,102,107,109,111,114,115,116,119,121,123,124,125,126,129,132,133,134,135,136,137,142,143,147,152},
{2,3,7,15,16,17,18,21,25,27,28,29,32,33,36,37,39,42,43,44,45,46,53,54,55,61,63,68,70,72,73,76,77,81,82,86,89,91,92,94,95,97,98,99,100,101,102,103,104,107,108,112,116,119,123,124,125,127,136,137,138,142,143,144,146,147,148,149,152,154},
{2,8,15,16,18,19,20,23,24,31,32,36,38,40,41,42,47,49,50,51,52,55,56,58,59,64,70,71,72,73,75,76,77,80,81,83,85,88,90,91,95,98,103,105,111,113,114,123,124,125,127,132,134,135,136,137,141,146,148,150,151},
{5,7,9,10,12,13,19,20,21,25,37,38,39,43,45,47,48,50,51,54,55,56,57,58,59,60,69,70,71,72,73,74,79,81,83,86,89,91,94,99,102,105,106,107,108,109,113,115,118,121,122,127,130,132,134,137,138,139,140,143,145,148,150,151,152,153},
{2,3,4,7,8,11,12,14,17,18,20,23,24,25,26,29,35,39,42,44,47,53,56,63,65,66,69,71,77,79,81,83,85,86,93,96,98,99,100,102,104,105,108,109,110,120,122,123,125,128,129,130,133,134,137,138,140,141,142,143,145,148,151,154},
{1,3,5,6,7,10,12,13,17,20,22,27,28,29,33,34,38,39,42,43,46,47,48,49,55,56,60,62,65,66,67,69,71,72,74,75,82,84,88,89,92,95,96,97,102,103,104,105,106,109,110,113,115,116,117,119,121,122,124,125,129,132,133,134,135,136,139,141,142,143,146,149,151,153,154},
{2,7,10,12,14,15,16,18,21,24,25,26,27,29,30,32,46,48,49,50,56,57,58,61,62,69,71,75,76,78,82,84,86,88,90,94,99,106,109,113,118,121,123,124,128,133,134,136,139,140,141,142,144,145,153},
{2,6,8,11,26,29,30,32,37,39,41,44,46,48,49,50,51,52,54,56,58,62,65,66,67,68,70,73,75,77,78,80,81,87,88,89,95,96,98,100,102,103,105,106,107,108,109,110,116,121,122,125,126,127,131,132,135,136,138,139,140,142,143,144,145,147,148,150,151,152,153},
{1,2,3,9,10,11,15,19,20,22,23,26,28,33,35,36,38,39,40,48,49,50,51,52,56,57,60,61,63,64,65,66,71,74,75,76,78,79,83,84,85,86,89,92,95,96,98,102,103,108,109,110,112,117,120,122,127,128,132,133,137,138,140,141,147,151,152},
{2,9,14,15,19,20,23,26,27,28,33,35,36,37,40,47,48,49,50,52,53,54,55,67,70,72,74,83,88,103,105,106,107,108,110,113,115,116,118,127,129,130,136,140,147,151,153},
{2,5,6,9,11,13,14,15,18,20,22,23,24,28,30,31,36,37,42,45,51,57,58,62,63,66,69,71,74,78,79,80,82,84,85,88,90,91,95,96,98,99,103,106,108,112,113,114,115,116,117,120,121,125,127,130,133,137,146,147,152,153},
{2,5,7,9,12,13,19,20,21,22,24,30,44,45,49,53,54,56,57,58,60,61,62,65,67,68,69,70,71,73,74,75,79,82,83,86,87,92,93,103,104,105,106,109,110,112,113,121,125,128,129,130,134,136,142,144,146,148,150,153,154,155,160,161,164,173,176},
{3,8,9,12,13,14,17,21,26,31,34,36,37,40,42,45,48,49,51,52,53,54,55,58,59,62,69,70,71,72,73,75,77,80,85,88,90,93,94,98,99,104,105,106,108,110,112,113,116,117,118,119,124,125,127,133,134,141,143,148,150,151,152,153,154,155,156,158,161,164,171,173,176},
{3,5,6,7,9,10,13,14,15,20,22,23,24,26,27,28,29,32,34,38,39,42,43,45,47,49,50,52,53,55,56,59,62,63,68,69,72,73,75,76,78,79,82,84,85,86,87,97,101,102,104,107,108,112,114,115,118,119,120,121,124,131,132,134,138,139,140,142,143,144,146,147,148,149,150,154,155,157,158,160,162,165,166,167,172,173,174},
{3,5,6,7,8,10,12,14,18,20,24,25,27,29,30,31,37,38,40,41,42,44,46,48,49,50,56,57,61,62,65,70,74,75,77,80,84,85,88,94,95,96,97,98,99,101,104,114,116,118,123,124,125,127,130,131,132,133,134,135,141,143,149,150,160,161,164,165,172,173},
{2,8,10,11,13,15,16,19,20,22,23,29,31,34,35,39,42,45,46,50,52,55,58,67,74,78,79,80,81,82,91,92,95,96,97,98,99,103,105,107,110,120,121,123,126,127,129,130,131,134,135,138,143,147,150,151,152,155,156,161,164,165,168,169,170,172,174,176},
{1,2,7,9,10,18,19,22,24,26,27,32,35,42,45,46,48,49,50,54,56,58,59,60,62,63,67,71,74,76,77,78,80,83,85,87,88,92,96,97,100,102,103,107,111,114,115,116,117,119,124,125,127,128,129,136,138,144,145,146,148,154,159,161,163,165,167,168,170,171,176},
{1,3,4,8,10,11,12,13,14,18,20,23,26,27,30,32,35,38,39,40,41,42,45,46,47,57,58,61,62,66,67,69,70,72,73,77,79,81,82,83,87,88,91,92,95,99,100,101,104,105,114,115,116,117,119,122,124,128,130,132,135,136,138,139,141,142,144,145,151,154,156,159,162,168,172,173,174,175,176},
{2,8,10,12,13,15,19,24,25,29,36,37,41,42,43,47,49,51,55,57,58,60,61,70,74,75,76,81,82,87,95,98,99,100,102,105,107,108,112,116,117,123,126,127,128,134,137,139,145,147,149,150,151,153,154,155,158,161,162,163,167,172,173,174,175},
{1,2,3,6,7,8,15,16,18,19,20,24,25,26,29,34,35,45,48,49,51,59,60,61,62,64,70,71,73,75,76,79,80,84,86,89,95,100,107,116,117,119,120,121,127,133,135,136,137,139,140,141,142,148,151,152,154,155,168,171,172,173,174,175},
{2,5,9,10,12,13,15,17,18,26,29,31,33,40,41,42,43,45,48,49,52,53,54,57,62,64,65,74,79,82,83,84,86,87,89,92,93,95,98,101,103,108,109,111,112,114,116,117,123,124,126,128,132,134,135,139,143,144,147,150,153,156,157,159,160,161,163,166,167,169,171,173,174,175,176},
{5,6,10,12,13,14,16,17,19,20,21,26,31,36,37,41,46,47,50,51,56,57,59,60,62,63,66,67,68,73,74,75,77,80,81,83,84,86,87,88,90,91,92,94,95,96,99,100,101,105,106,108,109,111,112,113,114,116,117,121,122,124,125,128,130,131,135,136,139,145,153,154,158,162,166,167,168},
{1,2,6,7,9,10,12,15,16,17,19,23,26,27,29,35,38,40,41,46,48,51,53,54,61,62,68,74,79,80,81,87,89,94,97,99,105,109,111,112,115,117,121,126,127,128,135,136,138,142,145,148,149,151,153,154,155,160,161,165,171,172,173,175,176},
{2,3,5,11,13,14,19,25,26,27,28,34,35,36,37,39,43,52,53,54,56,57,59,60,61,62,63,65,67,69,71,73,76,80,84,85,86,90,91,93,94,101,103,106,111,112,116,117,118,119,124,125,133,134,136,140,143,146,147,150,152,153,154,155,157,158,159,161,163,164,166,167,173,175,176},
{1,4,5,6,7,10,11,17,20,21,29,31,32,36,41,44,45,48,50,51,56,57,58,62,65,66,67,68,70,71,72,73,74,76,81,83,85,87,88,92,94,95,97,98,99,100,102,106,110,112,115,116,118,119,120,121,122,124,127,128,129,132,136,137,139,145,147,149,150,152,153,154,158,159,160,162,167,169,170,171,173,174,176},
{1,4,5,8,10,11,18,22,28,29,31,33,37,40,46,49,54,57,60,61,62,63,65,66,67,71,73,75,76,77,78,79,82,83,89,91,92,96,97,98,101,102,103,104,105,106,108,109,113,115,116,117,118,122,123,124,126,127,132,133,134,136,137,150,152,153,154,155,158,163,164,165,169,170,176},
{2,4,5,9,12,14,17,19,20,21,27,29,33,37,39,46,49,51,53,54,57,58,59,60,62,63,65,68,71,72,73,77,79,80,83,84,85,87,91,93,94,95,98,99,100,102,103,105,109,111,112,117,118,120,123,124,129,131,141,143,150,151,155,156,159,160,162,167,170,172,174,176},
{4,6,8,9,10,11,14,15,18,19,20,25,26,34,37,38,40,41,42,49,52,54,57,58,59,62,63,64,65,66,69,70,72,73,75,76,82,84,85,87,88,91,92,94,95,96,98,99,102,103,106,107,111,112,114,120,121,123,124,125,126,127,129,133,135,137,145,147,148,151,152,154,158,159,161,163,164,166,170,175,176},
{7,8,10,12,15,17,18,20,22,23,24,28,29,36,40,42,46,51,52,54,63,64,65,66,67,68,69,71,72,73,75,83,84,89,95,98,99,100,101,102,103,104,105,111,112,115,117,120,121,124,129,130,131,140,141,144,147,148,151,152,159,161,163,166,169,170,173,174,176},
{7,12,13,17,19,20,23,24,25,28,29,30,33,34,35,47,48,51,55,58,60,62,63,65,68,78,84,89,90,94,96,98,101,102,104,106,109,110,116,121,123,129,133,134,137,143,145,147,152,155,158,159,165,168,170},
{2,3,5,6,7,9,12,17,23,25,34,35,37,38,39,40,45,48,49,52,54,55,56,62,63,64,69,72,76,77,78,79,82,83,86,87,92,93,94,95,96,103,104,106,111,112,114,117,121,123,125,126,127,129,132,138,140,142,143,149,155,159,161,163,164,165,166,167,170,171,172,173,174,175,176},
{2,3,5,6,13,15,18,26,27,29,30,31,37,39,40,41,43,51,53,55,56,62,65,66,67,71,73,74,77,83,84,85,87,90,91,92,95,100,101,103,108,110,111,114,118,119,120,121,123,125,126,127,133,134,135,136,143,144,145,146,147,148,149,155,156,157,158,160,161,165,166,167,168,169,171,173},
{1,2,3,14,22,25,28,30,31,39,41,44,49,52,56,60,66,69,72,80,81,91,92,96,99,107,108,109,110,118,120,127,130,132,133,142,143,145,155,157,158,159,160,161,164,168,169,172,173,174},
{4,6,19,20,21,22,23,24,25,27,28,30,31,32,34,37,41,42,44,45,49,52,53,54,55,58,60,63,65,70,75,77,80,81,82,83,84,86,87,89,95,99,101,102,106,108,110,112,113,115,120,125,126,129,130,132,133,134,135,139,143,151,155,163,166,168,174,179,182,183,185,189,190,192,193,195,196,198},
{1,3,5,6,7,13,15,16,20,21,22,23,24,28,29,30,31,33,39,43,45,47,53,54,56,60,62,65,66,69,77,81,82,83,85,92,93,97,100,105,109,110,111,112,113,115,117,124,127,132,133,138,141,142,143,144,150,152,153,163,164,166,167,168,169,170,171,174,175,182,183,185,187,188,190,191,193,195,198},
{5,7,8,17,21,23,24,27,28,29,34,35,39,41,42,48,51,56,59,60,64,67,68,69,78,80,83,86,97,101,112,115,116,119,120,121,122,123,124,125,129,130,131,134,142,149,151,152,157,158,161,166,171,172,176,177,178,179,181,182,185,189,190,191,194,195,196,197},
{1,10,13,14,15,16,19,23,24,28,29,30,33,36,43,50,60,64,65,69,70,74,75,76,81,84,91,92,93,94,95,96,97,100,102,103,105,106,107,108,109,111,112,114,115,118,119,121,126,130,140,142,143,144,145,148,149,150,155,157,158,159,160,163,174,175,178,187,191,196,197},
{2,9,11,12,15,18,19,22,23,26,31,32,38,39,40,42,44,46,47,49,50,53,59,61,64,65,66,74,75,76,77,79,80,84,85,86,87,90,92,93,98,100,101,102,103,104,106,108,110,113,122,124,125,127,128,129,130,132,133,136,137,138,139,145,147,150,152,155,157,160,161,165,167,168,169,172,176,181,186,187,188,189,190,194,196,198},
{2,3,6,7,8,9,11,12,13,21,22,30,31,32,34,36,37,40,41,42,44,47,48,50,51,52,53,57,58,60,61,64,67,73,79,82,85,86,88,90,91,92,96,97,99,103,106,112,113,114,116,117,119,121,122,124,126,134,138,139,141,143,146,148,150,153,158,170,172,175,178,179,180,182,185,189,192,194,198},
{4,6,8,9,10,11,12,17,20,21,22,23,25,27,36,37,38,39,42,43,49,52,55,56,57,60,64,65,66,73,74,75,76,77,79,82,83,84,91,92,95,99,108,111,118,120,124,126,127,131,133,134,135,139,142,144,148,153,154,156,158,161,162,171,172,173,174,177,178,180,191,192,194,195,198},
{4,6,7,9,10,12,13,15,16,20,22,23,24,25,27,33,34,38,39,42,47,48,50,51,54,55,57,58,60,61,66,67,70,73,74,76,78,87,88,89,92,93,94,95,96,97,98,99,100,101,108,109,116,117,118,119,122,123,132,134,139,146,148,150,153,154,156,160,164,165,167,171,172,173,175,180,182,183,184,188,191,192,195},
{2,4,5,10,14,16,17,18,22,24,27,30,32,33,34,36,38,39,48,49,55,56,61,62,64,66,73,75,82,88,89,90,93,95,96,100,106,108,117,118,120,123,124,126,129,131,133,135,137,139,142,144,145,146,150,151,152,155,158,159,162,163,167,169,170,171,172,173,175,180,181,183,184,187,188,189,191,194,195,196},
{1,7,10,11,16,17,30,31,34,35,36,38,39,46,48,49,51,54,58,64,67,68,70,76,78,80,84,85,86,90,93,95,98,100,104,106,107,108,111,112,114,115,118,119,120,121,126,129,130,133,134,141,142,143,145,147,150,151,157,161,165,168,169,170,174,175,176,178,180,183,187,188,192,194,195,196,197,198},
{8,14,17,21,29,32,33,37,38,41,45,46,48,50,52,53,55,58,59,62,65,74,76,80,89,93,94,96,97,98,100,101,103,105,107,111,112,114,115,117,118,121,123,124,126,128,132,134,135,136,137,141,143,147,154,155,156,162,167,169,172,174,176,177,182,187,188,191,195,197,198},
{1,3,5,10,11,12,15,16,19,20,26,33,37,39,41,42,44,45,46,48,50,52,57,58,62,65,70,71,74,75,79,80,81,82,83,84,86,88,89,92,96,98,101,103,107,109,112,114,115,116,117,118,121,123,125,127,128,131,133,139,140,146,151,152,158,161,167,170,175,177,178,181,182,185,190,193,194,196},
{1,2,4,6,11,12,13,14,17,19,20,24,26,27,29,31,34,35,37,41,44,47,48,50,53,58,62,64,66,70,72,74,77,81,84,86,88,91,95,97,101,107,108,110,116,119,125,128,131,133,134,135,139,140,144,145,146,148,150,151,152,154,156,157,161,162,166,168,170,171,174,175,177,180,183,185,186,187,188,189,192,194,195,196,198},
{3,4,6,7,8,11,14,20,22,23,24,25,27,30,31,35,38,39,43,50,56,61,62,65,66,69,71,73,74,76,82,83,85,87,93,94,95,97,102,103,108,109,115,117,121,122,128,130,132,138,144,150,151,152,153,154,156,159,163,166,167,170,174,175,176,177,178,184,186,190,192,196,197},
{2,8,16,17,20,22,25,27,30,31,34,38,41,44,46,48,49,54,56,57,62,63,65,66,67,70,76,78,79,82,83,84,91,93,94,97,98,100,104,107,110,112,113,116,119,120,122,124,125,128,130,135,136,137,138,142,143,146,152,154,155,156,157,159,161,164,165,171,173,174,175,176,177,180,181,184,186,187,189,191,194,196},
{2,7,10,13,16,22,23,24,27,28,29,33,34,40,44,45,51,52,55,57,58,63,64,65,69,72,73,74,76,77,79,81,82,86,92,95,100,102,103,104,105,107,108,111,112,117,118,121,123,124,127,129,130,131,132,136,137,138,141,142,143,144,145,146,148,150,152,153,156,159,161,162,169,172,173,175,180,182,184,190,194,195},
{2,3,4,8,11,12,15,18,21,25,27,28,29,37,39,40,41,42,47,49,50,52,53,57,61,62,63,65,68,70,74,76,78,80,81,82,83,85,89,93,98,103,104,107,108,115,119,122,123,127,128,129,130,134,135,136,137,138,140,143,146,147,148,149,154,155,158,159,164,166,170,171,172,175,177,178,180,181,182,188,191,192,196,197,198},
{1,2,3,4,8,9,11,17,20,27,28,33,40,41,42,46,47,59,60,63,64,65,66,67,69,70,72,73,76,86,88,89,91,94,97,98,99,101,108,110,111,112,113,115,117,118,125,127,128,130,132,133,134,136,137,139,141,142,146,151,153,155,158,159,161,162,166,169,170,173,174,175,176,177,178,179,185,186,189,194},
{1,3,6,10,13,16,17,18,20,28,30,32,35,41,47,50,51,52,54,61,62,63,64,66,74,75,77,79,81,82,83,84,85,86,87,88,89,90,91,93,96,99,101,102,103,109,111,114,115,116,119,122,128,132,134,139,142,146,150,151,156,157,162,164,167,172,174,177,178,180,181,182,183,186,187,190,191,192,193,194,196},
{1,2,3,4,7,11,14,15,18,22,23,26,27,34,41,44,47,50,51,52,53,54,55,61,63,69,74,77,78,81,82,90,91,92,93,94,95,101,102,103,106,110,113,116,117,119,120,122,127,128,131,137,138,143,145,147,154,159,160,162,163,164,166,167,172,174,176,178,180,181,182,183,187,188,194,197},
{3,9,15,16,17,18,23,26,28,31,35,37,43,44,46,50,51,52,53,56,61,62,65,66,70,77,78,80,83,87,89,96,97,103,104,107,111,114,116,120,124,127,129,131,133,134,137,139,140,141,143,144,149,152,154,157,158,159,160,161,165,166,167,169,170,171,179,180,181,182,183,186,187,188,189,192,194,198},
{1,2,13,15,16,18,20,21,23,30,31,37,42,44,45,47,51,53,54,59,60,66,74,76,77,79,81,82,83,87,92,94,101,102,104,106,108,109,110,111,115,120,121,123,125,126,129,130,131,133,134,136,137,139,140,141,142,145,146,147,152,153,156,158,164,166,172,173,177,179,181,183,184,185,186,187,191,192,195,196,197},
{1,4,5,6,8,13,14,16,17,19,20,21,22,26,28,31,36,39,43,44,47,48,54,57,58,62,65,68,69,71,74,86,87,88,91,94,96,99,100,101,109,110,111,113,115,116,119,120,123,124,125,126,128,129,130,132,133,136,138,142,147,151,153,154,157,165,169,170,171,172,173,176,178,181,183,185,186,188,189,195,197,198,199,201,202,203,205,208,211,217},
{1,2,3,4,5,8,14,23,26,29,31,33,39,45,46,51,53,54,55,57,59,65,67,68,70,71,72,74,76,78,80,81,83,85,87,90,93,96,97,98,100,102,108,111,115,118,119,121,124,125,126,127,130,131,132,138,140,142,143,146,147,148,153,154,162,166,169,171,174,175,176,177,178,179,180,184,187,189,196,202,205,207,208,210,211,213,216,220},
{6,8,12,13,16,19,20,22,28,29,30,35,42,44,45,48,51,54,56,58,59,62,65,66,69,70,73,83,86,88,89,93,98,99,100,102,105,106,111,113,115,116,117,118,119,120,121,126,128,129,131,133,139,142,143,144,145,146,149,155,156,157,158,159,161,163,164,165,166,167,170,171,174,177,179,180,181,182,184,185,188,193,200,206,212,213,214,215,216,219},
{6,11,12,15,18,21,23,25,26,28,35,40,42,46,48,49,51,54,56,58,59,62,67,68,69,75,78,79,81,82,84,90,92,93,94,95,96,102,103,104,105,106,109,111,116,119,120,121,122,124,125,126,128,129,130,132,133,134,135,136,137,139,141,146,149,150,157,162,163,164,165,167,168,171,172,173,175,176,178,179,181,184,187,188,189,192,193,194,195,196,197,202,203,211,212,213,214},
{1,2,3,4,5,8,11,16,18,19,20,23,25,26,28,31,37,40,42,43,44,45,46,49,51,54,58,60,61,64,65,66,67,77,78,81,83,84,85,86,92,93,98,99,104,105,106,107,110,111,115,117,118,121,122,125,126,131,134,135,136,140,144,145,149,150,153,155,156,158,159,160,161,163,164,168,170,171,172,173,176,178,179,184,187,189,191,192,194,197,198,199,200,204,205,208,210,212,214,216,219,220},
{4,6,8,9,12,18,21,24,27,32,33,34,35,36,37,38,42,43,44,49,52,55,57,60,66,68,69,70,74,75,79,81,84,86,88,89,94,98,99,100,105,108,110,118,120,124,125,126,130,131,138,139,140,144,145,148,151,154,158,162,163,164,165,166,169,170,171,172,173,175,178,182,183,184,186,187,189,190,196,197,200,201,202,204,207,211,212,215,217},
{2,7,8,12,14,18,19,20,22,23,25,27,28,30,31,32,34,36,38,39,44,47,48,51,53,54,59,64,65,66,67,73,74,76,79,81,84,85,86,87,89,91,93,95,101,102,104,107,111,112,113,114,118,119,120,122,123,126,128,129,130,132,137,142,146,147,150,155,156,159,160,163,165,167,170,173,176,178,180,182,183,184,186,188,189,196,198,200,204,205,206,207,209,211,212,215,216},
{1,2,4,6,7,17,19,21,22,23,30,34,38,39,43,47,51,52,58,59,61,66,67,68,69,72,73,76,78,82,83,86,89,90,92,93,94,103,104,106,107,111,112,113,114,117,118,121,122,123,132,134,135,136,137,141,146,147,148,152,153,154,156,164,171,172,173,174,176,179,181,184,187,188,189,196,197,204,207,211,215,216,217},
{1,2,3,4,5,6,8,12,13,18,19,26,28,30,32,34,36,38,39,41,47,49,53,55,56,59,65,66,71,72,73,74,76,78,79,82,83,84,92,96,98,101,102,103,105,106,107,108,111,115,116,119,120,124,127,129,133,138,139,141,143,147,148,159,164,165,169,172,173,174,175,176,177,180,184,185,186,189,196,197,198,199,200,202,203,204,206,207,210,211,212,213,214,217,218,219,220},
{3,4,5,7,8,9,13,14,17,18,19,20,22,26,27,32,33,35,36,38,50,51,52,57,59,64,65,67,69,71,75,80,84,85,87,88,92,93,94,95,96,100,103,108,116,119,121,122,125,126,128,129,130,131,135,137,141,146,151,152,155,157,163,165,168,169,172,177,183,191,193,196,197,199,200,201,202,208,211,214,215,216,218,219},
{3,6,7,9,11,15,20,21,22,23,27,31,33,34,37,39,48,49,50,51,52,54,57,58,59,61,62,63,65,66,67,69,75,82,83,85,86,87,88,91,96,97,101,103,105,106,109,112,113,114,117,118,121,122,123,124,126,127,132,135,140,145,146,153,154,155,159,161,163,165,168,170,171,173,175,176,179,181,185,189,196,197,199,202,203,204,205,212,214,217,218,220},
{2,3,6,7,8,10,13,18,20,21,22,23,24,29,30,33,36,40,41,43,45,47,48,49,50,51,52,53,58,65,66,70,71,72,75,76,78,81,87,89,90,91,92,93,98,102,104,105,107,109,112,114,116,118,119,122,125,126,130,132,135,137,140,143,147,149,150,152,155,156,157,159,161,163,164,165,169,172,182,183,185,186,187,193,195,197,198,199,200,201,204,205,208,212,214,215,216,219,220},
{4,5,6,10,13,14,15,22,23,25,26,28,29,30,33,34,35,39,44,46,47,48,50,57,58,59,60,65,67,68,71,73,74,79,82,83,84,86,90,92,93,98,100,103,109,112,115,116,117,122,123,124,127,128,129,130,133,134,136,140,142,145,146,150,151,153,155,157,163,165,169,170,174,175,176,177,181,183,184,185,186,187,189,190,192,194,195,196,201,205,208,210,211,213,215,218},
{1,4,6,10,11,13,21,27,34,36,37,39,46,47,50,52,53,56,57,63,64,68,70,71,73,74,76,78,84,86,87,91,95,96,104,106,107,108,110,112,114,116,118,121,123,124,125,127,133,138,139,140,143,144,147,151,153,158,159,161,163,164,166,172,178,179,185,187,189,190,196,197,200,201,203,210,214,215,216,219},
{2,7,8,9,12,13,15,16,17,21,23,26,28,30,32,33,37,38,40,41,42,46,48,52,54,55,57,65,67,68,69,70,76,78,79,80,84,85,87,91,93,94,96,97,104,105,106,109,113,114,115,116,122,124,128,130,141,142,143,146,147,150,151,153,156,157,158,160,162,163,166,167,169,170,181,184,186,187,188,191,192,193,195,199,203,204,208,209,212,214,216,217,219},
{2,9,12,16,17,18,21,22,23,24,26,28,32,36,37,43,46,47,52,53,56,60,65,67,69,71,72,73,75,79,80,84,99,100,103,105,106,107,108,110,111,112,115,119,120,121,126,127,128,131,133,141,143,144,145,148,150,154,159,160,161,163,168,172,173,176,181,182,185,190,193,195,197,200,209,210,213,217,218,220},
{1,2,3,5,7,12,14,16,20,23,25,27,30,31,32,34,35,38,39,43,44,45,48,53,54,57,60,66,70,71,72,73,81,86,87,92,96,97,98,105,106,108,109,110,115,116,119,121,123,129,132,133,135,137,138,139,140,144,150,152,154,157,159,162,164,170,171,175,176,177,181,186,187,188,189,191,192,194,197,198,199,203,205,207,209,214,217,218},
{1,5,6,7,12,13,16,17,18,24,25,26,31,33,35,37,38,39,41,44,51,58,60,64,65,67,71,73,74,75,80,86,88,89,90,91,92,94,95,99,101,102,104,105,110,111,118,128,133,135,136,138,139,143,144,146,147,149,150,151,153,154,155,157,160,161,162,163,164,165,166,167,168,170,171,172,174,176,177,180,185,187,189,191,192,194,196,199,200,207,209,211},
{2,3,4,5,6,8,9,13,15,16,17,18,24,26,28,32,33,34,42,43,47,49,51,52,61,62,65,68,71,75,81,83,86,88,90,91,92,100,104,107,108,113,114,116,119,122,124,125,126,127,132,134,135,138,142,145,146,149,150,153,154,163,164,168,169,170,171,182,183,185,186,187,193,196,197,198,199,200,204,206,207,209,216,217,219},
{2,9,12,16,17,18,20,21,23,25,27,29,33,34,35,42,43,46,50,51,52,53,55,59,67,68,69,70,72,75,76,79,82,86,87,90,96,101,106,107,111,114,117,121,125,134,139,144,145,147,148,149,150,151,157,160,161,162,164,167,169,170,172,173,175,176,178,179,181,182,185,187,189,190,192,194,195,198,199,201,203,206,207,210,214,215,216,217,218},
{3,6,11,12,13,18,19,23,24,27,33,36,37,39,41,50,51,55,56,58,59,62,65,66,67,69,72,74,76,80,81,82,84,87,89,97,100,102,103,107,116,119,121,129,131,132,133,134,137,139,142,144,146,149,151,152,159,160,164,166,169,171,175,176,178,181,184,185,186,187,193,194,195,196,197,198,199,200,202,204,205,206,214,220},
{6,14,15,18,21,23,27,29,30,31,33,35,36,37,39,40,43,44,46,49,52,57,58,61,62,65,68,70,72,73,74,77,79,83,84,86,95,96,98,99,102,104,105,109,111,114,115,125,129,133,134,135,140,141,143,144,145,146,148,149,150,152,154,160,162,168,169,172,174,175,181,182,183,187,189,196,197,198,207,208,216,217},
{1,2,6,8,11,12,14,15,16,17,19,20,21,22,23,26,32,42,46,47,50,51,59,60,62,63,72,73,74,75,79,83,84,85,87,88,92,95,100,103,106,108,109,112,113,114,116,118,121,124,126,128,129,130,132,135,139,141,143,146,150,151,152,154,157,158,160,161,163,164,165,166,167,168,171,172,174,176,177,179,182,184,186,187,189,191,194,196,199,201,204,205,209,213,214,215,216,217,220,221,222,236,238,240,241},
{2,3,4,10,13,15,16,17,19,21,23,24,25,26,28,29,30,33,36,37,42,43,44,45,49,50,54,55,57,58,59,60,62,63,65,71,73,75,76,78,80,83,84,87,90,95,97,98,103,106,109,112,114,117,120,122,125,129,133,134,135,139,144,145,148,150,154,156,157,159,162,164,167,168,169,171,173,175,176,177,178,187,192,198,200,204,206,208,214,215,216,219,222,223,224,227,236,237,238,239,240,241,242},
{1,5,8,9,15,16,17,18,22,25,26,28,30,31,32,35,39,40,42,44,48,49,50,52,53,56,57,58,59,63,64,66,68,71,72,73,74,75,77,78,79,85,86,88,90,94,96,97,101,104,105,108,109,116,117,118,119,120,122,123,125,129,130,133,135,140,143,144,145,146,147,150,153,160,163,169,170,172,173,179,182,185,188,190,193,198,200,201,202,203,214,218,220,226,227,230,232,235,236,240},
{1,5,6,7,8,10,11,15,17,18,22,23,28,29,30,32,33,35,36,37,38,42,44,47,48,51,53,59,60,61,67,71,76,79,80,82,83,84,86,91,94,95,101,105,114,115,117,119,121,122,123,124,125,126,128,129,130,131,133,136,139,140,141,142,143,145,149,150,152,153,155,156,165,168,169,171,176,178,182,184,185,186,189,190,191,193,195,197,198,200,205,208,209,210,213,223,225,229,231,234,242},
{3,5,7,11,12,14,16,18,26,30,33,37,39,43,45,47,48,50,54,56,57,58,59,60,63,64,65,70,72,73,77,78,82,83,84,86,88,89,92,95,96,98,102,106,110,111,113,114,116,118,121,122,127,128,129,131,134,136,137,139,140,141,145,146,148,150,154,155,157,161,162,167,168,172,173,174,175,178,183,186,188,191,193,194,198,199,200,202,203,204,205,207,208,212,213,214,219,221,224,229,232,233,234,237},
{1,6,10,14,18,19,21,22,23,27,30,32,34,40,41,48,50,51,52,53,54,55,56,58,59,61,63,64,69,70,71,73,75,77,79,80,81,82,83,89,99,101,106,107,110,113,114,115,116,117,118,121,124,126,127,128,129,130,133,134,136,138,140,146,147,149,150,152,157,158,160,163,166,167,168,170,171,173,177,178,179,181,187,190,191,192,196,198,200,208,209,210,212,213,221,226,228,229,231,232,234,235,239,241},
{1,7,11,16,24,25,27,30,34,35,36,39,40,44,45,47,49,50,51,55,56,60,62,64,66,68,72,73,75,76,79,80,82,84,86,90,94,96,97,98,99,100,103,104,109,111,113,115,118,123,125,128,130,131,133,134,135,137,139,140,143,146,156,161,162,164,166,167,168,173,177,184,187,188,191,197,199,203,205,207,209,216,222,223,226,227,228,232,234,237,238,239,240,241,242},
{1,4,5,6,9,14,15,17,19,22,24,33,37,41,43,45,51,52,54,61,64,66,69,70,71,81,82,85,91,92,93,96,97,99,100,101,102,105,110,112,115,116,117,119,120,121,123,127,128,134,136,137,138,139,141,144,150,151,152,153,154,158,159,165,168,171,172,175,179,181,183,184,186,187,190,194,199,200,201,203,204,206,207,208,209,212,213,215,216,224,229,234,236,238,240},
{6,7,10,15,20,24,26,27,30,34,38,39,41,43,47,53,54,57,58,63,68,70,74,77,79,81,88,91,92,93,95,98,103,104,107,114,115,119,125,128,129,131,135,137,141,142,149,160,164,165,166,167,170,172,182,184,185,190,191,197,201,202,204,206,210,212,213,215,216,219,220,221,222,228,229,233,235,237,242},
{4,5,6,10,11,14,15,17,19,24,25,26,27,34,37,38,40,42,44,48,49,53,54,55,57,59,61,64,65,66,68,70,72,73,77,78,81,82,83,90,92,94,97,99,100,101,102,109,110,113,115,116,119,122,123,127,131,134,135,136,138,139,140,144,150,151,152,154,155,157,163,164,165,166,167,169,171,172,177,178,180,181,182,186,188,189,193,194,195,199,201,202,207,209,224,227,232,234,236,240},
{5,6,10,11,13,16,17,20,22,23,28,29,31,32,34,37,41,43,46,48,49,50,52,54,55,57,60,61,62,63,65,66,67,68,70,71,72,73,79,82,83,84,90,93,96,102,103,111,113,114,117,120,123,125,129,131,132,133,135,137,141,142,144,146,147,148,153,155,156,157,159,162,164,167,168,169,173,175,179,180,184,185,187,188,195,204,205,206,207,209,210,212,214,215,216,217,218,224,226,227,229,233,234,236,237,241,242},
{1,3,6,7,11,12,13,14,16,17,18,19,22,24,30,35,36,37,38,40,43,44,45,46,47,51,52,55,62,63,67,72,74,75,78,80,81,84,85,86,87,88,92,96,97,101,102,113,116,119,122,123,126,127,132,133,137,139,141,142,144,145,149,151,155,156,158,159,162,168,172,173,174,178,179,181,182,184,186,189,191,194,196,201,202,203,205,208,214,218,220,232,238,239,240,241,242},
{1,3,4,6,7,8,9,13,15,24,25,26,30,31,39,42,46,48,52,53,54,56,57,58,59,60,63,66,67,68,69,72,80,82,88,90,94,95,97,98,99,102,103,106,109,119,121,123,126,128,132,133,134,140,143,146,147,151,153,159,160,161,163,164,166,170,171,174,175,180,183,184,185,189,190,192,196,203,207,210,219,224,225,228,231,232,233,235,237,239,241},
{2,3,10,15,16,17,18,20,24,25,36,38,59,61,64,65,67,69,73,78,79,82,84,86,89,90,92,96,98,99,103,105,108,111,115,120,121,122,123,127,128,130,134,137,138,139,140,142,143,145,150,152,158,160,162,172,173,174,179,184,189,190,191,195,198,199,200,201,203,205,217,219,223,224,225,227,228,236},
{5,6,10,11,16,19,20,21,24,27,28,29,30,31,35,38,40,42,44,46,47,48,52,53,55,57,62,63,65,68,72,76,77,78,80,81,82,83,84,85,86,88,89,91,94,96,97,99,103,105,108,112,114,116,122,123,126,128,129,131,136,137,139,140,142,143,145,146,147,149,153,157,158,164,166,167,175,177,180,182,183,184,185,187,192,193,194,199,206,209,211,213,214,215,216,220,221,223,225,228,229,233,234,236,238},
{2,3,4,6,11,12,15,16,21,22,25,29,31,32,35,37,38,40,43,44,50,52,53,54,56,58,59,64,65,69,70,71,74,77,78,79,80,81,82,83,95,97,103,104,105,117,118,120,121,122,131,135,137,139,143,145,148,150,153,154,158,159,160,166,169,171,174,181,183,186,189,190,191,192,194,201,206,207,209,210,211,212,216,217,223,226,227,229,233,236,240},
{1,4,5,8,13,16,17,18,19,20,30,33,35,38,41,42,43,45,46,47,48,51,57,60,64,66,67,72,74,75,76,77,78,83,84,85,90,93,96,97,99,100,104,106,112,113,114,122,123,130,133,136,138,140,141,143,146,148,152,153,156,159,161,164,166,169,171,173,177,185,186,188,190,191,192,193,196,197,200,201,203,205,206,207,208,213,214,215,216,219,230,233,235,237,241},
{4,11,13,16,17,20,24,25,29,30,31,33,37,39,42,47,48,50,51,55,56,57,59,63,65,78,79,82,83,87,88,89,92,94,95,96,100,105,106,111,112,114,119,121,125,126,127,128,130,133,135,138,142,144,147,148,152,155,158,159,160,162,165,171,172,174,175,178,180,181,182,185,189,192,194,197,203,205,206,208,215,217,219,222,225,228,229,232,233,234,235,237,239,240,241},
{3,4,7,9,11,15,16,17,18,19,26,27,29,31,33,34,38,41,42,44,47,53,55,56,58,59,60,63,66,69,70,71,73,74,76,79,80,81,82,83,87,88,90,91,92,94,97,99,107,111,112,119,121,123,124,130,132,133,134,135,136,137,142,143,144,146,151,152,155,158,161,164,169,170,174,175,176,179,180,188,191,192,196,199,200,206,207,208,209,216,219,221,226,235,236,238,239},
{1,5,7,10,15,19,24,27,30,34,36,37,38,41,43,45,46,48,49,50,53,56,57,58,60,61,63,64,66,68,73,82,84,85,90,91,92,94,95,97,99,102,104,105,106,111,114,115,116,119,120,122,124,126,129,131,132,134,136,138,145,146,148,149,150,151,152,154,159,160,161,162,163,164,166,170,171,172,175,176,182,184,191,192,193,195,200,202,204,205,210,214,215,218,220,222,224,225,232,233,234,236,239,242},
{5,7,8,9,11,12,13,14,15,17,19,23,26,31,32,40,42,44,46,47,51,52,53,55,57,61,63,65,68,69,70,72,75,78,80,82,83,84,85,86,89,91,93,95,96,97,102,108,110,111,113,114,116,118,121,125,131,133,135,137,141,142,143,144,145,154,157,159,161,162,165,167,169,170,171,172,174,175,176,178,179,180,184,186,187,189,191,193,194,195,197,201,204,206,207,208,209,212,213,217,218,219,220,221,223,224,225,229,233,235,241},
{2,4,6,7,8,14,15,16,18,26,28,29,31,32,33,34,37,41,45,46,47,48,51,56,57,61,63,69,71,73,74,75,79,82,84,87,90,92,95,100,101,104,106,108,109,110,113,116,117,120,121,122,128,131,133,137,140,141,142,143,149,154,156,158,160,161,163,168,169,170,171,175,180,182,184,185,190,192,200,201,203,206,207,217,218,220,221,223,227,228,231,233,234,235,239,240,242},
{3,4,8,9,13,16,17,18,19,20,21,22,26,27,30,31,37,43,45,49,51,57,65,68,69,70,72,75,79,81,82,85,87,88,94,95,96,97,99,101,102,104,106,108,109,112,118,121,123,126,127,129,133,134,136,137,138,139,142,143,144,145,147,148,149,150,151,158,162,164,167,173,174,178,180,183,186,187,189,190,191,195,196,197,202,204,216,217,220,222,225,226,227,228,230,232,234,240,243,246,248,249,250,252,254,255,258,264},
{2,3,4,6,7,19,22,23,28,31,33,35,36,38,39,40,43,47,48,51,54,58,60,62,65,67,69,71,72,74,76,78,81,82,83,84,87,90,91,93,95,97,100,107,109,111,119,120,121,123,124,125,130,131,136,138,139,143,147,148,153,154,155,156,157,158,169,170,171,173,175,177,178,179,180,186,193,195,196,199,202,204,205,208,209,213,217,224,225,226,227,228,229,230,239,241,242,247,248,253,255,258,262},
{5,8,9,12,14,16,18,19,20,21,22,24,26,27,28,29,30,31,42,43,46,48,49,50,53,55,58,59,61,62,64,68,70,71,73,74,75,79,80,81,82,83,90,92,94,97,99,101,106,107,108,109,110,111,112,116,118,119,121,126,128,129,130,131,132,134,135,136,137,142,143,146,150,155,158,159,162,164,168,170,171,172,173,176,178,183,184,186,187,188,189,194,195,196,198,201,204,205,206,208,215,216,219,221,223,224,226,227,229,230,231,236,237,240,241,242,243,245,246,249,253,254,255,259,260,264},
{2,5,14,19,21,26,29,32,34,39,44,47,48,50,51,52,61,62,65,70,72,73,74,75,77,80,81,82,85,89,90,91,93,97,100,104,105,107,108,111,116,118,122,124,128,130,132,135,141,143,146,147,148,152,155,157,159,160,161,162,164,166,169,171,172,173,174,176,179,185,186,189,190,192,193,197,198,202,203,206,207,213,216,220,223,225,226,232,239,241,242,243,245,248,249,251,254,256,259,263},
{2,3,5,7,11,12,13,14,15,17,20,22,24,30,31,33,35,36,37,41,43,45,46,47,48,49,52,53,55,61,63,64,68,69,72,73,75,76,80,81,82,83,84,88,92,93,99,102,103,105,106,107,108,110,111,114,118,121,123,125,126,129,131,132,137,138,140,143,144,146,147,148,149,151,155,157,160,163,165,166,168,171,172,176,183,185,186,191,192,194,196,200,201,202,204,205,206,208,209,211,213,219,223,225,230,231,233,235,236,238,240,242,245,246,247,249,254,255,257,258,259,260,261,263},
{9,10,12,14,15,17,22,24,27,30,32,35,37,41,42,44,49,50,51,52,54,60,61,63,76,78,79,80,87,90,91,101,103,106,107,108,112,114,117,120,126,128,130,131,135,138,139,141,142,143,150,155,156,157,158,159,160,163,164,165,166,167,170,171,177,182,184,187,190,192,194,196,198,203,209,211,212,213,214,216,221,222,225,226,229,234,236,238,241,242,243,246,250,252,257,260,262,263},
{4,5,6,13,18,19,21,26,28,29,30,35,36,37,39,40,44,49,53,54,55,60,64,66,70,78,79,81,82,84,86,90,93,94,100,102,104,105,117,118,119,120,122,125,128,130,131,133,134,140,141,143,144,150,152,154,155,156,157,158,161,163,166,169,170,171,180,181,185,190,192,194,195,196,197,198,206,207,208,210,211,212,213,214,221,223,228,231,233,235,238,240,242,243,244,245,246,248,255,257,260,261,264},
{2,4,5,7,11,16,18,20,22,24,26,27,34,37,38,39,44,48,50,54,59,60,62,66,67,73,76,78,81,83,87,88,92,94,95,101,102,104,106,108,109,111,112,114,115,117,120,121,123,131,137,138,139,140,141,144,146,150,151,153,154,160,161,162,168,170,171,173,180,184,185,187,188,191,192,196,200,201,210,213,216,224,225,227,228,229,230,231,233,234,235,240,241,243,245,246,251,254,257,259,261,262,263,264},
{2,6,7,8,11,12,17,18,22,25,26,28,30,31,33,34,35,37,39,41,44,45,46,47,49,51,52,53,55,56,57,58,60,62,65,66,67,68,76,77,78,82,83,84,85,86,90,91,94,96,98,103,105,107,108,111,112,113,114,115,116,117,120,122,123,124,125,129,136,139,140,143,145,148,151,154,155,158,160,163,165,168,170,173,176,178,180,186,187,188,190,191,192,193,194,195,196,200,208,210,211,216,217,219,220,222,224,228,229,231,232,234,238,239,242,243,244,245,247,248,249,250,251,253,256,261,264},
{1,4,6,7,12,16,18,19,25,28,30,37,38,39,40,41,42,43,45,46,50,53,54,55,61,65,69,71,72,75,79,80,83,84,85,90,94,98,99,100,101,102,109,111,114,118,121,123,128,131,142,143,144,145,146,149,150,151,153,155,156,162,167,168,171,175,181,182,186,188,189,194,198,199,201,202,207,209,210,212,214,215,216,219,220,225,226,228,231,232,233,235,238,240,241,246,248,250,251,252,254,260,261},
{4,5,8,10,13,14,15,17,21,22,24,27,28,30,33,34,35,40,41,43,44,49,55,58,61,64,66,70,73,77,79,83,84,85,94,100,101,103,105,108,109,112,118,126,127,130,133,136,138,142,143,144,145,147,149,151,153,154,157,158,159,160,161,166,167,168,172,174,179,180,181,182,183,186,187,188,194,197,199,200,203,204,210,211,215,216,218,219,220,222,224,225,226,228,232,235,237,241,243,248,249,250,251,253,254,258,260},
{1,2,4,5,6,11,13,15,18,19,21,22,23,24,25,27,30,33,35,36,38,42,49,51,52,54,55,58,59,60,61,63,69,76,77,79,82,83,84,87,88,89,94,96,99,103,109,110,111,113,115,116,117,119,121,124,128,130,131,136,138,142,143,149,152,156,159,164,174,176,180,181,183,188,189,193,194,195,197,200,202,204,207,208,210,214,215,216,217,219,222,225,228,231,234,236,240,247,250,252,253,258,259,262},
{4,13,18,19,20,21,22,23,26,28,29,32,35,36,40,41,42,44,50,51,52,54,55,60,62,64,66,71,74,76,77,78,83,84,85,86,91,96,98,104,105,108,113,114,118,119,120,127,128,130,134,141,144,147,148,150,151,153,155,156,157,158,159,163,164,165,169,171,173,175,178,181,183,190,192,198,202,203,205,207,211,217,218,221,222,231,239,241,243,245,246,255,256,258,263,264},
{1,6,8,9,10,11,14,17,19,20,21,28,36,37,38,44,47,52,53,55,57,58,59,60,62,67,68,70,73,76,79,81,83,85,86,89,91,93,103,104,106,107,113,114,117,118,119,121,122,123,125,127,131,132,133,135,139,143,144,147,149,151,153,154,157,161,164,168,169,177,180,181,184,185,188,191,192,198,199,204,209,212,213,214,215,218,219,220,221,222,223,226,231,232,233,234,236,237,238,239,242,243,245,246,249,251,254,258,259,260,261,263,264},
{1,2,4,7,8,11,13,14,16,18,19,21,22,28,31,33,34,36,38,44,45,46,49,50,53,54,60,61,65,66,79,81,82,85,91,92,95,96,98,99,101,102,104,105,107,116,118,119,124,125,129,132,133,134,137,138,141,144,145,147,148,149,151,154,155,159,166,168,170,172,173,174,175,176,177,180,184,186,187,188,189,190,191,197,198,199,206,207,213,217,218,222,226,228,229,230,232,236,238,239,241,243,244,247,248,250,253,254,260,264},
{1,2,5,9,11,13,15,16,21,26,27,29,30,31,33,35,36,38,39,43,44,53,56,60,61,63,69,70,73,74,77,78,79,80,88,90,92,94,95,97,98,100,105,106,107,110,111,113,115,117,121,125,129,130,136,137,140,145,148,151,152,153,164,165,166,172,173,174,176,177,178,182,183,190,191,192,193,195,196,197,200,202,203,206,207,208,209,211,217,218,224,229,235,236,241,246,247,249,251,255,259,264},
{1,2,3,9,12,14,15,16,18,21,22,27,31,33,36,37,38,39,41,42,44,45,49,54,55,57,59,60,63,64,70,75,76,82,86,90,95,98,102,107,108,109,113,120,123,128,129,131,137,138,139,144,145,149,153,158,159,161,162,164,167,168,174,175,176,177,182,188,189,190,191,194,197,202,208,210,211,213,215,216,218,221,223,224,230,231,243,245,246,247,251,252,253,254,256,260,262,264},
{4,6,7,9,12,13,14,17,18,21,25,27,31,33,35,39,40,41,42,44,47,49,54,56,57,59,61,64,66,72,76,79,80,82,84,85,87,91,93,94,98,103,105,107,109,110,111,114,118,128,130,137,139,142,145,148,149,151,152,153,156,158,164,167,175,183,185,187,188,192,193,196,198,203,204,205,207,209,210,212,213,214,216,218,220,221,225,230,231,233,234,235,236,237,238,240,241,243,244,246,247,249,251,255,256,257,259},
{2,5,7,8,9,13,18,19,20,21,24,26,28,30,31,34,36,37,45,47,48,49,51,54,57,58,62,63,65,71,73,79,80,84,86,88,89,93,95,101,103,106,108,110,112,115,117,118,121,122,125,126,128,131,133,134,136,138,142,145,152,153,155,157,158,159,160,161,165,168,169,175,178,179,180,181,182,184,189,193,195,196,197,201,204,205,207,211,214,217,219,220,221,225,226,231,232,233,237,238,243,245,247,250,251,263},
{7,8,9,10,13,15,17,20,22,26,29,31,32,34,36,37,38,44,47,49,53,54,55,57,62,65,67,70,73,74,75,78,83,84,86,88,90,91,93,94,96,98,100,101,105,107,109,111,112,116,117,118,119,120,122,125,131,134,137,140,141,142,145,149,152,155,156,160,162,164,170,171,172,173,176,179,185,187,197,201,205,209,210,216,219,220,221,226,227,230,231,232,241,243,244,246,248,249,251,257,260},
{2,3,4,6,10,11,13,14,17,20,25,27,28,29,34,38,39,40,41,43,45,49,52,54,55,57,59,60,61,62,66,70,71,72,73,74,75,80,83,85,86,91,97,101,102,103,104,105,111,112,116,119,120,121,122,123,126,129,130,131,132,135,137,141,145,147,150,151,158,160,164,166,167,171,172,174,176,177,179,183,185,188,192,195,199,200,201,203,210,212,213,215,218,220,221,229,233,235,237,238,240,241,248,249,252,255},
{2,4,6,9,13,17,19,23,27,30,31,34,36,38,42,43,46,47,48,49,51,55,56,58,60,66,67,68,73,74,79,80,82,83,84,86,87,88,93,95,99,101,103,105,112,118,120,122,123,124,127,128,129,130,131,133,137,138,142,144,147,148,150,152,153,154,155,157,162,166,171,174,175,177,178,180,182,185,186,191,194,195,199,202,204,205,208,210,216,219,222,226,229,233,234,235,237,243,244,246,247,248,249,251,252,254,257,259,261,264},
{3,4,6,7,8,9,10,14,15,23,28,30,37,39,40,49,56,57,58,62,63,64,65,68,72,73,74,76,77,78,79,83,84,85,87,91,97,98,99,101,102,103,107,111,113,114,115,120,122,125,127,128,129,130,132,133,136,137,140,143,144,149,150,153,155,156,160,161,162,163,165,166,167,170,173,176,177,178,181,183,184,185,189,194,195,197,198,199,201,205,206,207,211,213,218,219,222,225,226,229,231,234,235,237,238,240,241,242,243,248,249,250,253,256,258,259,260,264,266,267,269,270,272,273,274,275,276,280,285,286},
{2,3,6,8,10,12,16,18,19,21,30,31,33,37,41,42,45,47,48,51,52,56,57,59,60,61,62,63,65,67,68,69,70,72,73,74,77,79,81,84,85,87,89,90,92,94,95,96,97,98,99,100,104,106,109,111,112,113,114,116,117,118,122,129,134,135,137,139,147,148,151,153,154,155,157,159,160,162,165,166,167,169,170,173,178,185,187,190,197,198,200,201,203,207,208,210,212,213,214,216,217,220,223,227,230,231,232,235,236,241,242,245,246,248,253,258,260,261,262,266,267,268,270,272,273,276,281,284,285},
{2,4,8,9,10,11,12,14,17,20,25,26,30,31,32,33,34,38,43,44,49,50,55,57,58,59,65,66,67,68,69,70,73,74,82,83,84,85,90,91,93,95,98,101,104,105,116,120,121,122,123,124,125,127,128,130,132,133,134,136,141,144,149,155,156,157,159,161,163,164,177,180,181,183,192,196,201,202,206,210,211,219,220,221,224,225,228,229,231,236,238,239,243,247,248,252,255,258,262,264,265,267,277,278,279,281,282,284,286},
{1,2,5,9,10,12,20,21,25,26,32,33,39,40,42,43,45,46,50,51,53,54,55,61,64,65,68,72,79,84,86,87,89,90,92,96,99,100,102,103,104,108,110,114,117,121,127,128,130,134,136,137,140,141,142,145,156,158,161,162,164,166,167,169,170,181,182,186,187,188,191,192,196,198,207,210,211,212,214,215,216,217,221,228,234,242,245,246,248,249,255,258,259,263,265,269,270,271,274,279,280,282,283},
{2,3,5,9,10,23,25,26,28,34,36,37,38,40,42,45,46,49,55,57,58,60,61,62,63,65,67,70,74,76,85,91,93,96,99,100,101,105,109,110,113,116,118,120,123,124,127,131,135,137,138,139,144,145,147,149,152,154,155,157,159,165,169,172,174,175,178,179,180,182,184,186,187,190,191,193,194,195,203,205,207,212,215,217,223,224,225,226,228,229,230,233,234,238,241,242,244,247,248,249,250,251,253,255,257,259,263,265,266,268,269,271,274,278,283},
{2,3,4,5,7,8,9,11,12,13,14,15,16,32,35,36,37,38,42,45,48,49,50,52,54,55,58,60,64,66,68,71,72,73,74,75,77,81,83,84,86,91,94,96,99,100,101,103,104,112,113,114,120,122,123,124,129,131,132,133,134,135,137,141,142,144,148,150,151,152,154,159,160,162,163,166,167,169,180,185,186,187,188,191,193,194,201,207,208,210,216,218,220,222,223,225,226,227,228,229,235,238,243,250,252,255,257,259,260,261,266,269,271,273,274,277,278,280,281,282,283,284},
{3,4,5,10,14,17,18,19,20,21,23,26,31,32,34,36,41,42,45,46,48,50,52,56,59,64,68,71,72,74,75,76,77,78,81,82,85,90,92,93,96,97,98,105,108,111,112,114,115,116,118,120,121,123,124,126,127,130,133,136,139,141,144,147,148,150,151,152,155,156,157,158,159,161,166,168,169,170,173,176,181,184,187,188,190,194,195,196,197,198,201,202,204,206,213,214,215,216,217,221,222,229,231,233,237,241,242,243,245,247,255,257,258,259,260,262,263,267,268,270,271,273,274,279,284,285},
{2,4,6,7,8,12,13,16,17,24,28,29,32,35,36,37,39,43,45,47,49,51,53,54,55,58,60,64,69,71,74,76,78,79,81,85,87,88,93,98,99,103,104,105,108,110,112,114,115,117,119,123,124,125,127,128,130,133,135,140,141,143,144,145,146,150,157,159,161,164,169,172,178,179,185,187,189,192,195,201,205,208,209,213,220,221,222,223,226,227,229,233,236,237,243,244,246,249,253,256,257,259,268,269,278,281,285},
{1,4,5,9,15,17,18,21,23,28,29,32,33,35,37,40,42,45,52,54,55,56,58,62,67,68,69,70,74,75,77,78,80,84,85,88,91,92,93,98,99,100,101,102,103,105,106,108,111,114,124,125,126,135,137,138,140,142,149,151,152,153,156,158,159,160,161,164,165,167,170,171,173,175,176,177,182,187,189,192,193,199,200,202,204,206,209,210,215,217,218,220,221,222,225,227,228,229,230,235,236,237,239,240,241,242,244,248,253,254,255,256,258,259,261,265,272,278,281,282,284,285},
{1,2,4,5,7,8,9,10,11,12,13,20,24,26,28,29,31,33,34,37,39,40,42,45,51,56,58,63,70,71,79,81,82,83,89,91,94,95,98,104,107,112,115,118,120,122,123,130,138,142,146,152,153,154,160,161,164,167,168,169,170,171,173,175,176,177,179,180,182,183,196,199,201,202,205,206,213,217,218,219,220,221,224,226,229,231,232,233,235,238,239,241,242,243,246,250,251,252,255,256,263,264,266,274,275,276,279,282,283,284,285},
{1,2,4,6,10,11,13,16,20,22,24,27,29,31,34,35,39,45,46,48,53,54,59,62,63,67,68,71,78,80,82,85,87,88,91,99,101,104,109,112,115,116,119,121,122,125,128,130,132,134,135,137,139,144,147,149,150,151,153,155,156,157,158,159,164,165,167,171,172,174,175,178,184,185,186,191,196,198,199,203,204,205,206,207,213,215,217,218,219,222,226,227,231,233,235,239,240,242,243,245,246,250,252,253,256,258,265,268,271,272,273,277,281,284,285,286},
{1,3,4,7,9,10,11,12,14,15,19,23,25,26,28,29,30,39,41,42,43,47,48,50,51,55,59,64,65,66,68,69,70,72,73,77,78,80,85,87,90,93,96,98,100,105,106,107,108,110,112,113,114,116,117,118,119,120,121,122,124,125,127,128,130,131,132,135,136,138,139,140,141,142,143,144,145,147,148,149,151,153,154,158,159,160,166,167,173,175,180,184,186,189,196,200,203,207,212,213,214,221,224,225,226,227,230,231,234,240,244,245,248,252,254,256,257,258,263,264,267,268,276,279,280,281,283,285},
{1,2,12,14,17,21,23,24,27,28,29,34,39,40,41,42,46,49,58,60,63,68,69,70,73,75,76,78,80,81,82,83,84,92,93,96,97,98,101,103,104,105,109,110,114,115,116,118,120,121,123,124,125,127,128,129,134,135,136,137,142,143,150,153,154,157,163,166,167,168,170,173,176,177,178,179,181,182,184,188,189,190,194,195,197,198,201,202,204,206,207,208,209,211,213,214,215,218,223,231,235,237,240,241,243,244,245,250,251,252,253,254,255,258,265,267,269,271,272,274,276,277,278,280,286},
{1,2,6,10,11,12,15,20,27,28,36,39,43,46,49,50,52,59,63,65,72,78,79,83,86,88,89,90,91,92,94,98,100,103,104,105,107,110,111,115,116,117,118,119,120,121,133,135,136,138,141,145,146,151,154,155,156,158,160,161,163,165,166,169,174,176,178,181,183,189,192,195,197,198,199,200,206,211,213,222,224,225,227,232,235,238,240,241,243,245,247,248,251,254,256,257,260,265,269,271,274,275,276,277,280,282},
{1,3,4,11,14,15,20,24,25,27,30,32,36,39,43,49,51,55,58,59,60,63,66,68,71,72,76,78,80,81,84,89,90,93,95,97,98,100,101,104,105,108,109,110,115,121,122,127,131,135,139,140,143,146,147,148,150,154,157,160,165,166,169,171,172,173,177,181,186,189,193,195,198,199,200,202,203,207,213,218,226,228,230,231,233,236,239,240,241,248,249,252,254,257,258,259,262,263,264,265,267,273,275,276,278,279},
{3,4,6,7,8,12,13,14,18,19,22,24,25,26,31,32,33,34,36,40,41,48,49,51,57,59,60,61,62,63,65,69,71,72,74,77,79,82,89,90,91,92,93,95,99,100,102,104,108,111,112,114,120,125,129,131,132,133,136,139,141,143,144,145,147,150,156,159,162,167,170,173,175,178,179,182,189,196,200,201,202,205,207,208,209,211,212,213,215,216,219,221,222,225,226,227,228,233,234,235,236,237,239,242,244,248,252,253,257,259,263,266,267,268,269,271,272,273,277,283,285,286},
{4,9,11,13,14,15,17,19,20,21,23,25,29,32,33,35,36,41,43,45,46,48,52,53,54,58,59,65,70,71,72,73,77,80,82,84,85,87,89,90,94,95,96,98,102,103,104,106,107,108,111,118,119,133,134,139,141,142,144,145,150,152,153,155,160,165,168,171,177,182,183,186,188,193,195,196,197,201,209,211,214,216,217,221,222,225,226,229,232,235,236,241,242,246,248,249,253,255,257,261,263,265,268,275,277,278,279,280,285},
{1,2,7,8,9,14,20,21,23,29,31,42,43,45,49,50,55,56,58,59,62,67,71,74,77,78,79,81,85,90,92,94,97,99,100,111,113,114,116,120,121,122,123,129,130,134,137,140,144,145,150,154,156,158,159,160,163,165,168,170,172,175,176,177,178,180,182,186,189,190,192,193,196,197,198,199,200,202,204,205,209,211,212,214,215,216,217,219,222,224,226,228,230,233,236,237,238,240,243,246,247,249,250,251,253,255,256,258,262,264,266,269,270,276,281,283},
{3,4,5,6,13,14,17,19,24,25,26,28,29,31,32,33,35,39,41,42,45,50,53,55,57,60,61,64,76,78,79,80,81,83,91,92,94,100,101,104,107,109,110,117,118,119,120,132,133,135,136,137,140,141,142,143,144,145,146,148,151,156,157,158,159,160,161,163,165,168,171,173,175,176,178,179,183,185,186,191,194,197,200,203,208,210,211,216,217,220,225,227,229,235,236,238,242,243,250,254,256,258,260,261,264,268,269,274,275,276,281,282,285},
{3,4,7,10,12,16,18,20,22,24,28,29,30,33,34,36,37,43,44,47,49,53,56,60,66,67,68,72,74,77,80,83,85,86,87,94,97,98,99,101,102,103,104,105,109,110,111,114,115,116,117,118,120,122,125,130,133,135,139,140,145,149,151,152,156,158,159,162,164,172,178,179,180,183,186,190,192,199,200,202,204,207,208,210,211,213,214,215,217,218,220,224,228,229,232,238,242,244,248,250,254,255,257,258,263,265,266,268,269,270,271,275,276,277,279,280},
{1,4,5,10,11,14,15,18,21,22,23,28,29,30,31,36,37,39,40,41,43,44,45,46,48,52,58,61,62,63,66,67,69,72,75,76,83,85,87,90,91,92,93,94,96,97,100,102,104,106,108,109,112,115,117,119,121,124,125,130,133,134,138,140,143,145,146,150,152,154,155,156,157,159,161,165,167,169,170,173,175,178,179,181,183,184,186,187,188,191,193,194,195,197,198,200,204,205,208,210,211,212,213,217,221,232,235,237,243,246,247,249,250,252,253,256,257,260,262,268,272,274,281,286},
{3,5,7,9,10,11,12,13,14,17,18,20,21,22,28,31,34,37,41,43,47,52,53,56,57,68,69,71,74,78,80,81,85,86,88,89,91,92,93,95,97,98,101,102,104,105,106,107,108,111,112,113,115,117,118,119,124,129,130,131,132,134,137,139,144,147,148,149,151,153,154,155,156,157,158,161,162,165,168,171,172,173,174,180,181,185,186,187,189,191,193,194,196,198,200,201,203,205,207,208,212,217,218,220,221,222,231,232,233,234,236,242,243,246,248,249,254,264,266,271,275,276,279,281,282,284},
{1,2,4,5,6,7,8,9,12,16,17,18,22,23,24,27,28,29,31,32,34,35,38,42,49,53,54,56,58,61,63,64,73,74,75,76,78,80,81,84,86,88,92,93,94,100,103,105,108,110,111,113,114,118,120,121,123,125,127,132,134,136,137,139,142,147,148,151,152,154,164,165,166,167,175,177,180,182,184,187,190,192,197,198,199,202,203,206,207,208,215,220,221,222,223,225,227,229,234,235,237,238,239,240,244,248,249,253,254,255,256,258,262,270,271,274,276,277,279,281,286,287,288,289,294,295,296,299,300,306},
{1,5,8,10,12,15,17,21,23,27,31,34,40,42,44,49,51,52,54,55,56,58,59,62,66,67,68,72,74,75,78,82,85,86,88,89,90,95,100,102,103,108,110,112,113,114,116,119,122,125,132,134,135,136,143,144,154,159,160,161,162,166,167,168,169,171,178,179,186,191,192,197,201,209,210,213,218,220,222,223,227,228,230,231,234,235,236,238,243,244,245,246,251,252,253,254,255,257,258,260,264,267,268,269,270,271,273,274,277,279,289,290,291,294,300,304,307},
{1,3,6,10,12,15,16,20,22,23,24,27,28,29,34,37,38,39,40,48,49,51,52,55,56,57,59,60,63,64,67,69,70,73,74,75,77,78,80,84,86,89,91,92,98,99,103,107,120,127,132,133,136,138,139,140,143,154,155,158,159,162,166,168,172,173,174,177,178,179,180,182,183,186,188,189,193,195,205,206,207,210,216,217,218,221,222,225,227,228,230,231,236,243,248,250,251,254,256,258,259,260,261,262,278,280,282,288,294,297,304,305,307},
{3,6,9,10,18,19,20,21,23,26,29,30,34,37,47,48,49,54,56,60,67,71,72,74,75,77,80,81,87,89,92,95,96,98,100,102,104,107,112,114,115,116,120,121,127,129,132,134,135,136,140,141,144,145,150,157,158,159,160,161,163,164,167,168,169,170,179,180,185,187,188,189,195,198,200,209,210,211,212,216,217,218,221,224,225,227,231,236,237,241,242,244,246,249,253,254,256,257,260,261,263,267,268,271,272,273,275,285,286,288,289,290,291,292,295,298,299,301,305},
{3,8,13,19,21,22,24,31,34,35,36,39,43,44,45,49,53,54,57,58,60,63,71,74,75,77,85,86,91,92,95,97,98,100,102,104,105,107,108,110,111,112,114,115,116,118,119,121,122,126,128,129,130,131,133,134,135,136,137,138,144,146,150,156,157,162,167,169,170,172,173,177,179,186,187,188,189,190,196,197,198,199,201,204,205,206,207,208,212,214,216,218,219,223,224,225,232,233,236,237,240,241,244,245,248,250,256,259,261,262,263,265,268,269,273,276,277,278,279,280,282,286,288,289,290,295,297,298,300,302,307,308},
{1,5,12,13,16,18,19,23,24,31,32,34,38,40,44,47,49,55,60,63,64,67,71,73,75,79,82,84,86,87,93,95,96,101,104,105,106,111,112,118,120,125,128,130,131,132,133,134,135,137,140,141,142,143,144,145,148,149,151,153,154,155,156,160,162,164,166,168,169,178,181,184,185,186,188,191,192,196,198,200,204,205,209,210,212,214,223,225,226,227,230,231,232,235,237,241,245,249,250,252,255,256,257,261,262,265,266,267,269,271,273,278,279,282,288,294,295,296,299},
{4,5,11,14,19,21,24,25,26,28,32,36,38,43,44,45,46,47,50,54,58,60,62,65,67,68,70,71,74,75,83,90,94,97,98,99,100,101,103,105,106,108,109,111,117,119,123,124,126,129,131,134,135,137,138,143,145,150,156,157,158,160,162,168,169,170,173,175,184,185,190,195,196,198,200,202,204,209,210,211,213,215,218,220,221,222,226,229,230,234,235,237,242,243,244,245,249,250,251,253,256,257,259,263,267,270,276,280,287,291,292,293,294,296,297,298,299,301,304,305,307},
{2,6,8,9,10,12,16,20,23,28,30,31,32,33,35,37,38,40,42,45,46,47,48,55,57,58,59,62,64,66,68,70,80,81,82,83,87,90,91,94,97,100,102,103,105,107,116,119,122,128,134,135,139,141,144,145,146,148,149,156,158,161,163,164,168,170,171,172,175,176,177,179,183,184,185,187,189,192,194,200,202,205,207,208,209,212,215,216,219,221,222,224,226,231,238,241,243,247,252,257,258,259,260,261,263,265,269,272,276,277,278,280,281,286,287,289,292,293,294,295,296,297,299,300,302,303,305,308},
{7,10,14,18,20,23,24,26,28,30,34,37,40,45,46,47,48,49,50,51,52,53,54,56,57,60,62,67,72,74,76,77,79,80,85,86,89,90,94,100,102,103,107,109,115,119,123,130,131,133,134,137,141,143,144,145,146,152,156,159,161,165,168,169,170,175,178,179,182,187,195,199,201,202,205,206,210,211,213,215,218,220,222,225,226,227,230,234,235,236,237,238,239,240,248,249,251,255,256,258,262,263,267,268,269,270,271,278,280,288,289,290,300,304,306,307,308},
{5,7,11,12,14,17,19,23,25,35,40,41,42,43,47,50,60,63,64,66,70,72,73,75,80,81,86,88,90,94,96,97,99,101,102,103,104,105,106,107,109,110,113,117,120,122,123,125,128,129,135,137,138,140,144,145,146,149,151,153,155,156,157,161,163,175,176,177,178,181,182,183,188,201,205,206,207,208,210,214,216,218,223,225,228,230,233,234,235,236,239,241,242,245,249,250,253,254,255,257,263,265,269,272,274,275,276,280,281,282,283,287,288,293,294,295,297,299,301,302,306,307},
{1,2,3,10,13,15,18,28,29,32,33,37,40,41,44,46,50,52,54,57,60,64,71,72,78,82,86,87,88,95,97,104,105,107,109,110,121,129,131,134,135,141,142,143,149,151,153,155,156,157,159,160,161,167,176,187,188,190,192,197,199,200,202,203,206,207,209,210,211,220,221,222,225,227,228,229,230,231,234,236,238,242,244,245,248,250,251,253,257,258,259,261,263,268,270,272,273,274,276,277,279,280,281,282,283,284,293,294,298,299,303,304,308},
{1,5,6,8,13,17,19,20,23,24,25,27,28,29,30,32,33,34,35,38,40,42,44,46,50,53,54,59,61,66,67,68,71,73,74,75,77,80,85,89,91,94,96,97,98,99,101,104,106,108,115,121,123,125,126,128,129,130,135,136,137,144,148,154,156,158,161,162,170,172,175,178,179,180,183,186,188,189,192,193,196,203,204,206,210,211,212,213,220,221,222,224,225,226,227,228,229,231,233,237,238,240,241,248,249,253,259,262,263,266,267,270,272,274,275,277,278,279,282,286,290,291,292,294,297,300,301,304,308},
{2,4,5,14,15,16,17,18,19,20,22,28,30,32,33,34,35,36,37,38,41,42,43,45,46,47,48,49,52,54,55,58,59,62,67,68,70,71,72,76,78,80,81,82,84,88,91,94,97,100,101,105,106,109,110,111,118,119,121,123,124,126,129,130,131,133,137,144,147,148,149,150,152,154,155,156,157,158,164,165,166,167,168,169,170,171,173,179,188,191,192,193,194,195,197,198,202,204,206,207,211,212,215,216,218,219,221,223,226,227,230,233,234,239,240,241,243,244,245,246,250,251,257,260,261,263,266,269,277,279,280,283,284,288,289,291,292,296,297},
{1,4,6,9,10,11,12,17,20,21,23,26,29,35,38,40,43,44,47,48,49,53,55,56,57,58,59,63,67,71,75,78,79,81,84,85,86,88,89,90,91,92,98,104,105,106,107,110,112,113,116,120,121,124,125,127,136,137,140,141,144,148,150,151,155,157,158,159,160,161,165,169,170,175,176,177,180,184,185,187,190,194,195,196,197,199,200,201,203,204,205,206,208,209,210,213,214,217,222,224,225,230,231,232,233,235,236,237,241,243,249,252,254,255,256,257,259,262,263,269,272,274,276,279,280,282,283,284,287,289,290,293,294,299,301,303,305,307},
{2,4,5,8,9,10,11,14,18,19,20,21,24,25,26,31,33,36,41,45,46,47,53,54,61,64,67,68,72,73,76,78,81,85,88,91,93,96,101,103,104,105,111,114,116,123,125,127,128,129,131,132,133,139,146,149,153,154,156,158,159,161,163,166,167,168,173,179,183,184,188,191,193,194,197,198,199,200,202,203,204,205,206,207,208,209,212,219,222,226,227,228,231,234,235,237,241,243,246,247,254,260,262,263,264,267,269,273,276,278,279,280,281,283,290,291,292,298,299,301,307},
{7,9,13,18,22,24,26,27,29,30,33,36,38,42,43,44,47,48,49,53,54,55,59,61,64,68,69,73,81,84,90,91,92,94,96,98,102,103,104,108,115,117,118,119,121,123,124,130,136,138,140,146,147,148,149,158,160,161,163,166,167,168,173,174,175,177,178,181,183,184,188,189,193,194,196,202,203,204,208,210,214,216,217,218,219,224,228,229,230,231,236,240,242,244,246,247,248,250,252,253,254,257,258,260,264,265,266,270,271,272,276,277,278,280,285,291,292,293,295,297,298,302,303,308},
{3,4,6,11,14,15,19,25,26,30,32,33,38,40,43,46,47,48,50,52,55,59,60,61,62,68,70,71,73,74,77,78,79,82,86,91,93,98,99,100,101,102,106,108,109,113,114,115,118,123,126,134,136,137,138,141,143,144,147,148,152,157,159,160,161,162,167,168,171,173,174,175,178,184,188,191,193,194,195,196,199,200,202,208,214,215,217,219,220,221,222,225,227,236,238,245,246,251,254,257,260,267,277,280,284,288,290,294,295,302,306},
{1,3,6,9,10,15,18,22,26,27,30,31,33,39,40,42,46,48,51,55,59,61,65,67,74,82,84,85,86,89,91,92,100,103,104,106,108,109,111,114,115,116,118,120,126,131,132,134,136,139,142,146,147,148,152,154,159,164,167,169,170,172,180,183,190,193,194,195,196,204,208,209,210,211,212,213,214,216,219,222,224,228,230,237,240,241,242,244,245,246,249,250,251,255,256,259,260,261,263,264,270,274,275,279,281,282,287,288,289,292,296,301,306,307,308},
{1,4,8,13,15,16,21,26,28,33,38,40,46,47,50,51,53,56,57,58,64,65,68,71,76,79,81,82,84,85,89,96,98,99,100,102,103,104,106,113,116,118,119,120,121,122,124,125,128,129,132,134,136,140,144,146,149,150,151,152,155,156,158,161,165,166,168,170,171,174,175,176,181,189,195,200,202,203,205,208,211,213,214,215,218,220,221,224,230,231,232,234,235,236,240,241,242,248,249,253,256,260,261,262,263,265,267,269,270,271,272,275,276,279,281,282,283,284,285,286,287,291,294,295,298,301,302,303,304},
{1,12,13,16,17,19,22,29,30,32,34,35,44,45,47,49,64,67,72,73,74,81,85,87,94,97,98,104,107,109,114,115,116,117,119,122,128,129,130,132,135,143,145,147,153,154,158,160,166,167,168,169,172,173,176,177,178,180,181,184,185,187,189,190,191,193,197,198,207,208,213,217,219,223,224,225,226,228,230,231,236,238,242,244,247,248,250,251,252,254,256,257,258,262,264,266,269,270,272,274,279,281,283,284,286,292,295,298,301,303,305,306,307},
{1,5,7,8,10,12,13,14,15,17,21,26,27,28,30,31,33,34,35,39,43,47,54,56,57,59,68,70,71,72,73,75,77,79,82,85,90,92,96,98,99,100,102,106,110,111,112,121,124,125,127,129,132,133,139,142,143,149,153,154,156,158,162,165,168,169,170,172,177,180,184,185,186,188,189,191,192,194,199,201,202,203,209,213,215,223,225,227,228,236,240,241,242,244,247,249,251,252,254,255,256,257,258,267,271,274,278,279,282,284,285,287,292,293,296,297,299,300,305,307,308},
{6,7,9,11,12,16,18,19,20,21,23,25,27,28,29,30,32,34,35,36,38,41,42,44,45,52,53,56,57,58,59,60,64,65,67,68,71,79,80,83,87,92,94,95,97,104,105,107,110,112,113,119,121,122,123,125,126,127,130,132,134,135,137,140,141,143,145,148,151,154,155,158,159,160,161,164,166,170,172,173,174,175,179,181,182,186,188,189,191,192,195,201,206,211,212,213,214,215,217,221,224,226,233,235,236,237,241,242,243,246,247,249,252,253,255,256,257,258,261,263,264,266,267,269,271,273,275,278,279,281,284,285,286,287,291,292,295,298,301,303,304,306},
{1,2,7,9,17,20,23,24,26,27,28,30,31,32,33,35,38,39,42,46,47,53,54,56,58,59,60,61,62,64,67,73,75,80,82,84,86,87,88,90,94,96,97,101,102,104,105,109,110,111,112,113,116,117,121,123,126,132,135,144,147,148,149,151,153,156,157,158,159,160,164,166,169,171,172,173,176,177,180,182,188,190,193,194,196,198,199,200,204,209,212,214,217,219,220,221,222,225,226,227,230,231,233,234,235,239,241,242,244,246,248,249,252,258,259,260,262,268,269,275,277,281,282,283,286,287,289,290,295,297,298,299,302,303,306,311,312,318,319,323,325,328,330},
{1,3,4,10,11,12,17,20,25,27,28,30,31,32,33,34,38,42,47,50,53,55,58,59,63,65,67,73,76,85,86,88,89,90,92,94,95,98,99,100,102,106,107,109,110,111,112,113,117,121,122,124,125,126,127,128,133,135,138,140,143,145,147,153,154,156,157,161,163,165,166,167,168,169,171,173,174,178,179,180,181,182,185,186,187,191,195,196,198,199,200,201,202,203,216,217,220,225,229,232,234,235,237,239,240,242,243,246,249,251,252,254,256,260,261,262,266,268,269,270,272,274,275,279,281,284,287,291,292,303,304,305,310,316,318,319,325,326},
{2,3,4,7,11,12,13,19,24,25,31,36,39,43,45,48,49,51,53,55,59,64,68,73,77,80,83,85,86,88,91,93,96,100,102,105,106,108,109,112,114,115,120,123,124,127,129,130,132,139,144,145,146,147,149,154,158,162,163,165,168,170,171,175,176,178,179,181,182,184,185,187,188,192,193,196,198,204,207,208,210,214,223,224,228,230,231,232,239,240,243,245,246,247,250,252,253,254,256,257,258,261,264,267,269,271,273,275,277,281,283,284,291,292,294,296,297,304,306,307,310,311,316,317,318,320,324,329},
{1,3,5,15,18,19,21,22,27,28,31,34,36,39,40,41,48,49,60,64,65,69,70,74,80,82,87,89,90,92,95,96,97,98,101,106,108,112,118,119,128,129,135,139,141,143,144,146,147,150,151,152,153,155,156,159,161,164,169,176,177,183,184,189,190,191,198,199,206,210,211,213,215,216,217,220,221,223,224,229,231,232,234,238,239,243,244,249,252,253,255,258,259,263,264,265,267,269,277,280,281,283,286,289,291,297,301,309,314,317,319,325,326,327,330},
{1,2,7,12,13,14,15,19,20,22,26,31,34,39,41,42,43,46,52,55,56,57,59,63,65,67,70,72,75,79,84,86,88,90,91,92,99,100,101,104,107,108,113,116,117,119,120,123,127,134,139,141,145,148,149,150,151,155,156,166,167,168,172,173,175,176,177,178,180,181,187,189,194,198,199,201,206,213,217,218,219,220,226,232,234,239,243,244,247,251,253,261,264,266,267,268,270,272,273,274,277,278,279,281,282,285,286,292,296,297,298,300,301,303,305,307,310,315,316,323,326},
{1,3,10,15,16,19,22,23,25,26,27,28,31,37,39,41,45,46,49,50,51,52,53,54,57,58,60,61,64,66,67,68,70,72,73,76,82,90,93,95,96,100,101,105,109,110,111,114,117,118,120,125,126,127,128,131,135,137,138,139,141,145,147,148,149,154,156,159,160,161,162,167,170,172,173,174,175,177,179,182,183,185,188,190,192,198,201,203,204,205,206,208,209,212,214,215,216,217,222,223,228,230,233,235,241,242,243,247,248,250,251,253,254,255,258,260,262,264,267,272,273,274,278,280,281,284,286,287,291,292,293,295,301,302,303,313,315,317,319,322,326,327,329},
{2,3,6,8,10,14,15,19,20,28,30,34,35,36,37,40,45,49,51,55,61,63,66,68,69,71,79,81,84,86,92,93,99,100,101,102,104,106,108,109,110,114,117,118,119,120,122,124,126,127,133,136,141,142,143,148,149,152,154,156,162,166,168,173,177,178,182,183,186,187,195,197,198,199,201,202,204,206,208,209,217,218,219,220,224,225,233,234,236,237,238,240,242,244,245,251,252,255,258,261,264,265,266,267,269,271,272,274,275,277,278,280,281,284,285,288,292,293,294,295,301,308,309,310,313,316,317,320,323,325,326,328},
{3,9,11,13,14,15,29,31,35,39,40,44,48,50,51,52,53,54,56,57,59,60,61,63,64,67,69,71,73,74,77,78,81,82,85,86,87,88,91,92,95,99,100,101,106,107,112,113,115,116,120,121,122,123,124,125,126,127,128,132,139,142,144,145,147,148,149,151,155,157,158,159,162,164,167,174,176,179,184,185,186,187,191,194,197,201,204,207,208,210,211,212,213,221,229,231,232,234,243,244,247,250,253,255,256,257,258,259,261,262,263,266,269,272,273,274,277,278,279,283,284,285,287,289,290,291,293,297,300,302,303,309,311,313,320,321,322,326},
{1,2,3,4,7,8,10,14,15,18,19,21,24,29,31,32,40,42,48,49,50,52,55,56,59,63,69,70,75,77,79,81,85,87,88,90,91,92,94,96,97,102,106,108,114,115,116,117,118,122,127,128,132,133,134,136,137,138,140,142,143,146,149,150,155,159,160,161,165,167,168,173,176,177,178,180,182,184,185,188,199,202,206,207,208,209,215,217,218,219,222,231,232,233,235,236,237,239,246,248,249,251,253,254,257,259,261,262,263,264,265,266,271,275,279,281,282,283,284,287,291,294,299,300,302,303,307,308,315,316,320,321,327,330},
{3,4,5,11,12,20,24,29,31,34,38,39,40,42,43,45,46,48,50,51,56,59,60,61,67,69,70,76,79,80,81,82,83,87,88,93,101,103,104,107,109,110,112,114,122,125,129,131,132,134,138,139,144,150,151,154,155,156,158,160,162,165,166,167,168,172,173,174,176,177,181,182,184,186,188,189,193,195,200,201,202,203,212,213,215,219,221,222,230,236,237,239,244,249,251,254,255,257,260,261,264,265,270,273,275,280,293,296,302,305,315,316,317,319,321,325,327},
{4,7,9,10,13,14,15,16,17,21,22,23,25,32,33,34,39,43,45,49,50,51,52,53,54,58,60,61,62,63,65,66,68,74,75,83,97,99,100,103,108,109,110,111,112,113,116,119,120,121,122,126,127,128,131,133,134,135,138,141,142,144,145,147,149,153,156,158,161,162,164,166,168,170,171,174,176,179,182,185,187,192,197,199,200,206,215,217,220,223,224,225,230,232,235,236,241,243,246,247,248,253,254,255,258,260,261,264,265,270,273,274,276,277,278,281,283,285,295,296,299,300,301,303,306,308,310,313,320,324,325,328,329},
{4,7,8,10,14,15,21,22,25,26,27,31,34,38,42,44,46,52,54,55,57,59,60,62,65,68,70,74,75,77,78,83,85,90,93,95,97,100,102,104,105,113,114,115,118,120,124,128,131,132,134,141,142,146,149,157,158,162,164,169,173,176,177,178,180,186,189,190,191,193,194,198,199,201,209,210,214,215,216,217,219,221,223,226,227,229,230,237,240,242,243,250,253,254,257,259,260,261,262,263,264,265,266,267,271,273,275,276,278,279,280,282,283,285,290,291,292,293,295,296,300,303,309,313,318,323,324,325,329},
{1,5,6,7,9,10,11,12,13,16,17,19,23,28,30,36,37,38,40,42,47,53,54,56,61,64,69,70,78,79,84,86,89,93,95,98,99,102,103,104,106,107,108,115,116,118,119,123,125,127,128,131,135,139,141,142,143,145,146,149,150,154,156,157,158,160,161,164,167,169,172,173,177,178,179,181,183,186,189,192,198,200,203,207,208,211,212,214,217,221,225,226,227,228,229,233,238,241,245,246,247,250,251,252,255,257,259,261,263,265,268,277,281,290,291,292,295,297,301,303,304,305,308,309,310,313,314,320,322,323,324,327,330},
{2,5,6,7,9,13,14,17,18,19,21,22,26,28,29,32,33,36,40,44,56,57,60,61,65,68,72,73,74,75,77,78,80,83,85,90,93,94,95,98,99,100,107,108,110,111,113,114,116,118,121,122,123,127,133,137,138,142,146,147,148,154,156,157,159,160,161,162,165,166,168,170,176,178,179,181,182,185,190,191,193,195,198,199,200,202,206,212,214,221,224,228,233,235,236,237,239,241,242,243,244,245,251,252,256,257,260,261,265,270,273,274,280,281,283,286,291,292,294,297,301,303,304,306,308,309,313,320,323,324,327,329},
{1,5,13,16,18,23,25,31,32,34,35,37,39,44,45,47,54,59,60,63,66,68,69,70,71,72,73,74,78,79,83,84,85,87,88,90,91,93,95,96,97,100,102,104,105,108,110,112,114,116,118,119,124,126,127,128,146,149,150,152,153,155,158,162,164,166,168,171,172,173,174,175,176,181,184,185,193,194,196,201,202,205,207,208,212,215,216,218,219,220,223,224,225,228,230,231,232,233,234,238,243,244,245,249,251,253,254,255,256,260,265,266,268,272,273,275,276,277,282,284,286,291,294,295,296,299,303,306,308,310,311,313,317,319,321,326},
{2,6,10,12,13,15,16,19,28,29,32,37,42,44,46,48,51,55,56,57,61,71,73,76,77,78,79,80,82,84,86,88,90,91,92,95,97,99,103,104,105,106,107,110,111,112,118,119,122,123,124,125,127,131,139,146,148,154,155,156,157,162,164,167,174,177,179,180,181,182,187,191,195,201,204,205,206,210,219,222,224,227,228,233,235,236,238,242,243,244,246,247,251,252,253,255,258,259,261,266,268,270,272,277,281,283,293,295,296,298,299,301,303,306,307,308,309,310,311,312,318,319,321,324,327},
{1,2,4,7,9,12,20,25,26,29,30,31,32,35,40,41,42,44,45,47,49,55,57,60,61,64,65,66,68,69,72,73,76,78,82,84,85,86,90,91,92,94,99,100,101,103,109,114,117,122,124,125,127,129,133,140,143,146,147,153,156,159,160,162,167,169,170,172,175,176,178,186,187,188,189,190,191,199,205,208,212,213,217,227,230,234,237,241,244,245,247,250,252,256,262,263,267,273,275,280,281,283,289,291,293,298,303,307,313,314,316,317,320,322,323,328,329,330},
{2,3,5,8,10,11,14,15,17,19,22,26,28,29,32,38,41,43,44,47,48,49,52,54,55,57,58,61,62,63,65,72,73,75,76,81,90,94,95,97,101,102,104,106,107,108,109,111,114,119,124,125,126,128,130,132,133,136,138,141,143,149,152,157,159,164,166,169,172,173,175,177,178,181,184,192,195,197,201,202,203,204,205,208,210,212,215,216,217,219,220,221,225,230,231,233,236,237,241,243,244,246,247,249,250,254,259,261,262,263,264,270,274,281,285,286,288,289,303,304,305,306,308,309,311,312,313,316,318,322,323,325,326,328},
{1,4,9,12,14,27,30,31,32,33,34,38,40,43,45,47,49,50,52,54,58,62,63,64,65,68,72,73,74,75,77,81,85,87,89,90,91,92,94,97,103,105,106,114,116,118,120,121,122,128,130,133,134,141,143,144,149,150,162,167,168,169,171,173,177,178,180,181,182,190,191,192,194,198,200,202,203,204,207,209,213,215,216,217,227,230,231,233,237,238,239,240,241,243,247,248,249,258,263,264,266,267,270,274,277,278,279,280,286,287,290,297,303,304,306,308,320,326,327,329,330},
{2,4,5,6,13,22,26,27,29,31,32,35,36,38,39,40,41,44,46,48,50,51,56,62,64,65,67,68,72,74,75,76,77,79,80,85,96,99,100,105,106,109,110,111,114,115,116,122,123,124,127,129,133,134,135,139,143,144,147,148,152,159,162,163,164,165,168,170,175,178,179,180,183,185,189,190,193,196,197,199,200,202,205,209,210,214,217,233,234,239,240,241,249,250,255,256,260,261,262,273,276,277,278,281,283,284,286,291,292,294,298,304,305,306,309,313,314,315,316,317,319,326},
{4,5,7,9,10,11,12,15,19,21,22,24,26,27,29,33,37,39,41,44,46,48,50,55,61,68,69,73,75,76,80,82,84,86,88,90,91,94,96,97,98,99,100,104,111,115,116,121,122,123,124,128,129,130,133,135,137,138,141,143,144,145,146,148,156,159,160,164,165,167,168,171,173,174,175,178,179,184,188,189,191,193,194,197,199,200,203,210,213,215,217,218,222,223,235,237,240,242,243,244,246,249,251,253,254,259,263,264,266,269,271,272,273,275,277,282,283,284,285,286,287,291,292,293,295,297,301,303,309,311,313,315,316,320,324,325,326,330},
{2,3,4,6,8,9,10,13,17,19,20,22,23,24,25,28,34,35,36,37,38,41,42,45,47,48,54,55,56,57,61,62,66,67,70,71,72,73,74,76,77,80,81,87,88,89,90,92,93,99,105,106,109,114,115,117,121,124,125,126,127,131,132,134,135,137,139,140,143,145,146,148,149,150,152,153,155,158,164,165,170,171,172,174,175,178,179,183,188,189,190,195,196,198,199,200,202,203,208,209,210,211,214,217,218,220,222,223,224,230,235,237,245,247,248,249,250,253,256,257,260,261,264,266,269,271,273,275,277,279,280,281,282,293,294,295,296,298,299,302,307,309,311,312,316,320,326,327,328,329,330,332,335,338,340,341,347,349,351},
{2,4,7,9,16,20,22,24,25,32,33,34,38,39,43,44,46,49,52,53,55,57,59,61,66,67,69,76,78,80,82,83,84,85,86,90,91,94,96,97,98,101,103,106,108,109,111,112,114,115,117,120,124,126,130,131,134,138,139,141,142,143,146,149,151,153,154,155,156,157,158,159,160,163,167,171,172,178,181,182,186,187,188,192,195,201,204,205,206,209,217,218,219,220,224,233,234,235,236,237,239,240,248,255,256,258,261,262,263,265,267,268,269,271,273,280,282,286,287,295,297,298,302,303,304,305,309,310,314,316,317,320,321,322,323,324,325,327,328,330,335,338,340,341,342,343,345,346,347,351},
{2,8,10,11,12,18,21,23,26,32,33,37,39,44,45,47,50,51,52,53,60,61,64,65,69,72,75,76,80,82,83,85,86,87,88,90,92,94,97,101,103,105,107,113,124,125,126,131,133,135,140,141,142,143,147,148,151,153,154,155,158,160,162,168,174,178,179,180,181,183,185,194,195,196,200,201,202,203,207,208,211,214,217,219,224,226,230,231,234,236,237,239,241,242,243,244,250,252,255,261,262,263,271,279,282,284,286,288,291,293,296,297,299,303,307,312,314,315,316,317,320,321,326,332,333,334,339,341,344,345,346,349,350},
{4,5,6,7,8,9,11,12,13,14,15,16,19,20,21,22,25,26,31,32,35,38,39,41,42,46,49,50,57,58,59,60,62,63,71,72,75,77,78,80,82,83,84,85,87,89,95,99,102,104,107,108,110,115,117,118,119,126,131,132,133,136,137,139,144,146,147,148,153,155,159,162,165,166,170,176,177,183,185,187,190,192,196,199,200,204,210,213,217,218,222,223,225,226,230,232,233,235,236,237,240,241,244,246,251,253,258,269,274,275,276,278,279,281,282,283,288,290,291,293,296,297,298,299,307,311,312,314,315,323,324,325,326,327,332,333,338,341,343,349,351},
{4,9,11,12,13,17,21,23,26,34,36,37,39,43,46,48,49,52,56,58,59,60,61,65,67,69,70,72,75,78,82,86,87,90,91,92,93,96,98,99,100,101,114,120,126,127,134,137,138,141,143,144,145,151,154,156,158,159,160,161,162,163,165,167,168,171,173,174,178,182,188,192,193,194,196,199,201,204,208,210,216,218,220,223,225,226,227,232,233,234,240,241,244,245,247,250,255,261,262,263,276,285,287,288,289,294,298,299,301,302,303,305,306,307,308,311,313,317,321,322,323,325,327,330,334,336,338,339,340,342,343,346,351},
{2,4,5,6,7,8,12,32,35,38,41,47,48,49,50,56,58,59,60,61,62,63,64,72,74,76,82,86,89,90,95,97,99,100,102,104,105,106,109,110,111,112,113,114,116,118,120,122,123,124,125,127,130,132,134,135,139,143,144,146,150,151,153,157,159,161,164,169,170,173,175,176,184,187,188,189,190,191,192,193,196,198,200,204,206,207,210,211,212,216,218,220,225,232,233,236,237,246,247,249,257,259,260,262,263,264,265,266,268,271,272,284,285,288,291,292,295,298,299,310,312,314,319,320,326,329,330,332,333,334,337,338,339,340,342,344,345,346},
{1,10,11,12,15,16,26,27,28,34,37,39,41,42,44,46,55,56,58,59,64,65,66,69,72,74,76,78,80,83,84,85,86,89,92,95,97,104,105,108,109,114,115,118,119,127,128,131,132,133,138,139,141,150,153,159,160,162,168,169,170,171,172,174,175,176,181,183,184,186,187,193,195,197,200,203,205,206,207,208,211,212,216,217,218,219,221,222,224,230,232,233,235,236,238,239,245,249,251,252,257,259,260,261,263,265,269,275,276,283,284,287,288,290,291,292,293,295,301,302,305,307,312,314,315,318,319,323,324,328,329,332,335,336,338,343,344,346,349,350},
{1,3,8,10,13,14,16,23,26,28,29,30,31,32,37,39,41,44,45,48,49,51,55,61,64,65,66,74,81,82,83,89,93,95,96,98,99,102,103,104,105,107,109,111,114,116,121,123,124,125,128,132,136,142,144,145,146,147,148,149,150,153,157,158,160,161,163,164,166,171,172,177,181,182,197,198,206,208,210,217,226,229,238,239,240,244,248,251,252,256,257,260,262,264,268,270,271,273,275,277,278,286,287,290,291,293,295,298,307,309,312,313,314,319,326,329,330,332,336,337,340,341,342,345,347},
{1,2,3,7,10,12,15,17,18,19,20,21,25,27,28,30,31,34,36,37,40,45,48,50,52,55,59,63,64,65,68,69,71,74,75,76,81,85,86,89,91,97,98,100,104,105,106,109,113,114,115,123,124,125,131,132,134,137,139,140,142,143,145,146,148,149,150,151,154,155,156,159,161,166,167,168,169,173,174,176,182,184,187,189,190,192,196,198,201,206,207,209,211,212,213,215,220,225,230,231,234,238,241,243,244,245,252,255,258,259,262,263,268,270,275,284,285,294,296,297,298,301,302,304,307,310,311,313,314,316,324,326,328,330,331,338,342,343,345,347,348},
{3,4,5,6,7,11,15,18,21,22,23,24,25,28,31,33,36,39,41,49,54,61,64,67,70,71,72,74,79,81,84,85,87,97,100,102,107,108,109,112,122,123,124,125,127,129,133,135,137,138,141,144,147,150,152,155,156,157,159,160,166,169,170,174,176,178,179,180,181,184,188,190,191,193,195,196,197,199,201,202,203,207,208,210,213,214,216,219,220,221,224,225,226,227,232,242,245,246,247,251,252,255,261,272,275,276,279,285,286,292,296,300,301,308,309,310,316,317,318,322,324,326,330,331,332,334,338,340,341,344,345,346,347,351},
{3,8,9,16,17,18,24,28,30,32,33,35,42,43,45,48,49,52,59,61,63,64,66,67,69,70,80,81,84,86,87,89,91,96,99,106,107,110,112,114,116,117,121,122,123,124,131,132,134,139,141,143,144,145,149,152,153,154,155,157,158,160,161,162,165,168,169,170,173,174,175,176,178,179,193,195,198,202,204,205,213,215,218,219,220,225,226,231,238,239,241,246,253,254,258,259,260,262,266,269,274,275,277,278,279,280,282,283,285,289,291,301,302,304,306,308,309,311,314,316,322,323,324,325,329,331,335,339,347,348},
{3,8,11,15,16,18,20,23,25,27,30,31,33,34,36,45,46,49,51,53,56,59,62,64,66,67,71,72,73,74,75,78,79,82,88,90,92,94,96,98,102,104,106,107,108,114,115,116,118,127,129,131,134,136,146,147,152,154,155,157,158,159,161,163,165,170,171,172,174,175,176,185,187,188,196,201,202,203,204,205,206,207,211,218,219,220,230,231,234,239,242,243,244,245,246,253,255,259,260,261,264,265,271,272,279,280,282,283,288,289,291,294,295,296,298,299,303,304,307,308,311,312,316,317,321,322,323,328,329,330,331,332,333,334,337,339,342,343,345,348},
{3,4,6,8,10,13,16,18,21,23,25,28,32,33,36,38,39,42,43,44,45,46,48,51,52,53,54,55,56,57,62,64,67,68,69,75,76,81,84,86,87,90,93,95,97,100,103,104,105,107,109,112,118,119,120,123,125,127,129,130,131,132,133,135,138,141,145,148,149,151,160,162,164,168,170,172,173,174,179,180,182,184,191,192,193,195,198,201,202,203,204,211,213,217,220,222,223,225,226,227,228,231,232,233,234,236,237,238,240,243,249,250,252,253,257,261,263,267,271,275,279,280,281,282,283,288,290,292,293,299,304,306,307,310,312,315,316,319,329,332,337,342,343,346,349},
{5,9,11,15,16,20,22,24,26,28,32,37,41,43,44,45,48,50,52,56,60,61,63,64,65,66,70,72,73,75,78,79,81,84,87,94,96,97,100,102,104,106,109,112,118,120,130,133,138,139,145,152,153,156,157,160,162,165,184,190,192,193,194,196,201,202,205,206,210,212,213,215,218,219,220,221,224,227,228,231,232,233,239,240,243,246,252,256,257,262,263,264,265,270,271,272,273,276,281,284,285,286,288,292,293,300,301,304,305,307,316,317,320,321,328,330,332,334,336,339,343,344,346,349},
{5,6,7,14,18,19,20,21,27,29,31,34,35,38,39,41,44,48,51,53,58,63,64,65,66,67,70,71,72,74,77,80,82,83,84,85,86,88,91,93,94,100,101,102,105,108,109,112,113,114,115,117,121,122,124,128,130,131,132,136,138,146,147,148,149,152,155,156,159,161,164,166,167,172,179,180,181,182,185,191,193,194,196,197,198,199,200,203,204,208,209,217,218,222,223,227,234,240,241,242,243,246,248,250,253,260,263,264,265,266,268,270,272,273,276,277,282,283,284,286,287,294,295,300,302,306,308,309,313,316,319,320,321,322,323,324,329,330,331,332,333,334,335,337,338,339,344,345,347,349,351},
{2,5,8,10,12,13,15,16,29,33,35,38,39,41,43,45,46,47,49,51,52,53,55,56,62,64,67,71,72,74,78,80,86,88,89,91,92,94,95,97,100,101,104,107,108,109,111,113,114,115,120,121,122,126,127,134,135,137,138,140,141,142,145,146,148,149,151,153,154,155,157,158,164,167,168,169,171,177,182,184,186,187,188,190,192,194,195,197,198,207,208,213,219,221,222,225,227,229,231,234,236,238,243,245,250,251,254,255,257,258,259,261,262,263,266,268,269,270,271,272,273,277,279,283,284,285,286,292,294,295,299,301,302,310,312,314,316,319,320,321,323,324,327,328,329,330,332,337,340,341,343,349},
{1,2,3,4,7,10,13,19,23,24,25,33,35,41,44,47,50,52,56,57,59,66,68,70,74,79,80,81,82,84,86,87,88,89,90,92,95,97,101,103,105,106,113,114,116,117,123,124,127,129,130,132,135,139,140,142,145,150,151,153,156,157,158,159,161,163,164,165,167,173,174,177,182,186,188,189,194,195,196,199,201,202,204,205,208,210,212,221,227,228,231,232,236,238,239,246,249,251,255,257,260,261,263,266,267,268,269,271,272,273,274,275,276,277,278,279,285,286,287,288,289,295,303,305,306,307,310,311,312,313,314,315,318,319,321,323,325,327,333,341,344,347,349,350},
{1,3,5,6,7,9,11,16,18,21,23,25,28,29,30,31,34,36,37,38,41,42,43,44,49,52,54,58,62,65,72,73,78,80,83,84,87,89,98,99,101,102,103,106,111,112,113,114,115,118,120,121,122,124,128,129,130,132,135,138,140,142,146,147,149,151,152,153,154,156,158,163,165,166,167,169,170,173,176,178,180,181,182,185,186,187,188,191,199,200,204,207,209,215,217,218,220,221,222,228,230,232,234,236,246,249,252,255,259,260,262,264,266,267,270,271,278,281,283,284,285,286,292,294,295,305,306,311,312,313,318,319,322,323,325,326,328,329,330,332,336,338,342,344,347,349},
{1,5,8,9,10,12,14,15,17,24,27,28,29,34,36,37,41,46,60,61,62,63,70,71,72,73,74,75,76,77,79,80,81,84,85,86,96,97,101,103,104,105,107,109,116,117,121,123,127,128,129,130,136,137,140,142,143,144,149,150,152,153,154,157,159,162,164,165,166,167,170,171,172,175,177,178,179,180,183,185,186,187,188,189,190,196,197,198,200,202,203,206,209,213,214,216,218,219,221,228,232,235,237,238,240,241,245,246,249,250,253,255,256,257,258,259,260,262,265,266,267,268,269,272,273,277,280,281,282,285,290,293,295,297,299,300,301,302,307,308,310,312,313,315,316,320,323,325,329,340,341,342,344,345,349,350,351},
{2,6,10,11,13,15,20,25,28,31,33,37,38,40,44,48,54,60,61,62,63,64,70,73,82,85,87,88,89,91,92,93,94,95,97,98,100,101,107,109,110,115,117,118,119,121,122,124,126,129,130,131,132,133,139,141,143,144,146,147,150,155,156,163,168,173,174,178,179,181,184,188,190,193,196,198,202,204,207,209,212,217,218,220,221,226,230,233,236,239,240,242,246,248,249,251,252,254,255,258,260,261,263,264,267,268,272,277,281,289,291,292,296,302,305,307,317,319,321,327,329,332,334,337,340,342,344,345,347,350,351},
{7,8,9,18,22,29,31,34,35,37,40,45,47,49,50,51,55,58,60,64,67,68,74,77,87,89,90,92,93,95,96,102,104,105,108,109,111,112,116,117,118,121,125,126,129,130,131,133,134,136,148,150,155,160,164,165,174,177,178,181,182,186,190,199,200,202,203,204,207,209,210,211,212,213,214,219,223,226,227,230,232,233,235,239,243,244,248,252,256,263,265,266,267,269,270,273,274,276,280,283,288,290,292,297,299,301,308,314,317,319,321,324,332,334,339,340,341,346,347,349,350,351},
{1,3,4,5,6,7,8,9,10,17,18,22,24,29,34,37,38,41,44,45,46,47,51,57,60,65,66,69,70,71,72,82,83,85,87,92,95,100,104,109,111,112,113,114,115,116,117,120,121,122,127,132,135,136,139,151,153,155,156,161,162,163,168,170,172,173,175,176,179,182,184,186,188,191,198,202,203,204,207,208,210,212,215,219,223,224,225,228,231,235,241,242,243,244,245,246,247,250,253,257,258,259,261,263,266,267,269,270,276,277,278,282,289,290,292,294,306,311,316,320,324,325,327,328,332,336,338,340,341,344,345,348,349,355,356,359,360,365,367,368,369,371},
{2,4,5,6,13,16,17,18,19,20,22,25,27,33,34,36,38,39,42,45,46,47,48,49,50,54,57,64,67,68,69,70,75,77,80,83,84,85,86,89,91,92,93,95,96,97,98,103,108,111,113,114,116,117,118,120,121,122,124,127,128,129,130,131,134,135,136,140,141,144,145,146,148,149,151,157,158,161,162,163,166,170,172,179,181,182,186,190,194,195,197,200,204,208,215,216,217,221,222,228,229,236,238,240,243,245,246,248,250,253,255,256,259,262,265,266,267,268,269,272,275,278,281,283,286,288,295,296,298,299,301,304,305,310,312,314,315,324,332,334,335,337,341,343,345,346,350,351,352,353,355,356,359,362,364,368,371,372},
{9,11,17,20,21,28,32,33,35,36,41,43,44,47,48,51,58,59,62,64,67,68,78,79,80,82,84,85,86,87,89,91,94,95,97,100,101,102,103,104,105,106,109,110,112,114,115,120,127,128,129,130,133,135,136,139,141,142,146,147,150,152,157,161,162,166,173,175,176,177,184,186,187,193,196,200,201,202,203,205,209,210,211,212,215,216,220,221,222,225,228,230,231,232,236,237,240,244,247,249,252,254,256,257,259,260,264,268,270,278,279,281,283,285,287,288,291,292,294,295,298,300,305,306,309,314,315,318,319,324,329,336,338,340,343,344,347,348,350,352,356,359,361,364,367,368,369,372},
{5,19,23,24,25,26,30,36,37,41,44,46,48,51,55,57,59,60,61,63,64,67,71,73,74,78,91,93,94,95,96,97,103,105,108,109,110,111,116,118,119,124,128,130,131,132,134,137,141,144,146,153,157,158,159,162,163,164,168,171,173,175,176,177,178,180,182,185,187,189,193,196,197,198,201,206,208,211,212,216,218,221,222,227,230,231,232,237,241,242,244,247,248,254,258,260,261,264,265,266,271,274,275,276,277,278,281,282,284,289,291,292,294,301,302,304,306,309,313,318,321,327,336,338,341,342,343,344,345,349,350,356,358,359,361,362,364,367,369,372},
{2,4,7,12,16,18,19,20,25,28,38,39,40,41,43,46,47,51,56,57,58,64,66,68,70,71,74,81,85,88,91,97,98,99,101,102,104,106,108,109,111,113,115,116,117,122,127,130,132,133,134,145,150,151,157,158,160,163,164,165,167,172,179,182,183,184,187,194,199,206,209,211,213,216,219,224,226,227,230,233,235,236,237,243,246,247,248,249,250,256,257,258,259,260,261,262,263,264,266,270,272,273,276,278,279,281,283,290,298,299,300,302,303,305,306,308,310,314,316,317,321,326,329,330,331,341,344,346,347,349,355,358,359,363,365,367,368,370,371},
{1,2,3,4,5,7,10,12,13,15,17,19,20,25,29,30,31,33,34,35,38,47,50,53,54,55,61,62,64,65,70,71,73,74,81,82,84,85,87,91,92,95,97,101,104,111,113,114,115,117,121,124,125,128,130,131,132,133,135,136,139,142,147,148,149,151,154,156,158,160,163,164,166,169,175,177,178,179,181,185,188,195,197,200,201,205,207,208,209,212,216,217,221,224,226,229,230,231,232,234,236,240,242,245,250,252,253,254,256,257,261,262,270,271,273,274,275,277,278,281,282,283,285,288,290,295,296,299,302,304,305,312,313,317,320,325,327,329,330,332,333,337,338,339,342,345,349,350,352,358,359,362,365,367,368,369,372},
{2,8,9,14,18,19,21,23,24,25,28,29,33,34,35,40,42,53,55,59,60,61,67,69,71,74,77,78,81,82,84,86,90,96,98,99,100,104,109,111,112,116,118,121,127,128,129,130,133,134,135,148,149,150,152,154,155,156,157,160,166,169,176,178,185,188,191,194,195,196,197,200,203,204,206,209,210,212,214,218,220,221,222,230,232,233,234,243,247,248,250,255,259,260,262,264,267,271,272,273,274,277,279,280,281,285,286,291,293,294,295,296,298,300,302,310,311,313,314,316,318,319,322,323,324,328,329,335,336,338,343,344,346,347,348,350,354,355,357,358,359,360,366,367,368,370,372},
{2,8,11,12,15,21,22,24,28,31,35,36,38,41,45,46,47,49,54,58,59,60,64,65,66,67,71,72,73,74,76,77,80,86,87,89,93,95,96,97,108,112,113,120,122,125,128,131,132,133,137,139,140,142,146,149,152,156,158,159,160,163,166,170,175,179,181,183,184,186,187,188,189,192,195,198,202,203,205,206,207,211,214,216,227,228,238,240,241,243,246,248,259,260,262,266,267,271,272,280,283,285,286,287,289,290,298,299,300,302,304,305,309,310,312,313,314,318,319,322,323,331,335,336,339,340,341,342,344,348,350,352,353,354,356,360,361,367,368,369,371},
{6,7,9,10,11,12,13,14,22,23,25,26,27,30,34,38,39,40,41,42,45,46,47,50,51,57,61,65,67,71,72,75,76,81,86,90,92,94,98,99,100,101,107,108,113,114,117,118,124,128,130,132,137,138,139,141,145,151,152,154,157,158,160,162,164,166,167,168,170,171,172,175,184,186,193,194,195,197,202,203,204,210,211,213,217,222,224,225,226,227,228,230,231,235,243,246,251,253,254,258,259,261,263,265,267,268,271,275,277,278,279,286,287,289,297,298,305,308,310,311,314,318,319,320,322,323,326,330,333,335,339,341,344,346,352,355,357,358,361,363,365,367,368,369,372},
{1,3,8,10,12,15,17,18,20,21,23,24,26,27,28,32,34,35,37,38,41,42,47,50,53,57,59,60,61,71,74,76,78,79,81,82,84,85,86,87,88,89,90,91,93,97,99,100,102,105,107,112,115,116,118,121,122,125,127,131,132,134,137,139,141,142,143,144,148,149,150,154,158,160,165,167,168,174,176,178,179,182,184,185,189,193,194,195,196,197,198,200,202,208,211,215,220,222,223,228,230,235,238,239,242,243,244,245,251,253,254,257,262,265,267,270,271,273,277,282,284,286,289,292,293,294,295,296,298,299,302,305,306,308,314,316,317,319,321,330,331,332,333,334,335,336,339,340,341,342,344,346,349,355,356,357,369,370,372},
{3,5,7,8,9,11,12,13,14,18,22,23,25,32,36,37,39,42,43,44,47,48,50,51,53,61,69,70,71,74,75,77,79,81,82,84,85,91,92,93,94,96,97,102,103,104,107,109,112,114,115,117,118,120,121,122,123,124,125,130,132,133,140,143,150,152,153,156,158,161,163,164,169,172,173,174,175,177,179,180,181,183,184,188,193,194,195,197,198,199,200,201,203,204,209,211,215,220,226,228,229,231,234,237,238,240,241,242,247,249,251,252,254,257,267,269,272,273,275,278,280,284,285,288,290,293,296,299,304,305,308,311,312,314,319,321,323,324,326,327,328,336,337,338,341,342,347,348,349,351,359,361,362,364,365,370},
{1,3,7,8,12,13,15,17,18,21,22,23,25,27,28,31,32,33,35,37,38,39,40,44,46,48,52,53,55,56,57,60,61,62,67,72,74,78,80,81,87,88,90,91,93,97,98,101,102,103,108,110,111,114,119,123,124,127,128,130,131,133,135,137,138,139,144,147,150,152,153,154,155,161,162,167,170,172,173,174,175,176,179,181,183,184,185,186,187,189,199,200,201,203,209,210,212,213,218,219,220,224,227,228,230,235,238,239,240,244,245,248,250,251,258,264,265,266,267,270,271,273,274,276,278,285,286,287,291,292,296,297,298,299,301,305,306,307,310,317,318,321,322,324,325,327,328,330,338,353,354,359,360,363,365,372},
{2,3,7,10,12,14,17,19,24,25,26,30,32,35,37,40,43,45,47,48,49,50,52,53,56,60,61,62,63,68,72,75,78,79,80,81,83,87,88,92,94,95,99,100,102,104,109,110,113,115,116,119,120,122,123,129,130,131,137,139,142,144,145,147,150,152,153,158,159,162,163,165,173,179,180,181,182,187,188,190,191,193,194,195,197,198,201,204,205,207,209,210,214,220,221,223,225,230,231,237,238,240,245,247,251,252,256,260,261,266,267,268,270,272,273,278,279,280,281,282,283,293,294,295,296,297,298,301,302,303,305,307,308,312,318,321,323,325,328,331,332,334,335,338,339,341,345,346,348,349,351,352,357,359,367,368,369,372},
{1,2,5,9,10,11,12,13,16,21,22,31,32,35,36,38,47,48,64,68,70,76,78,79,80,86,89,91,92,93,96,99,100,103,106,107,112,117,118,121,125,127,129,134,135,137,141,142,143,146,149,150,155,156,157,159,162,163,165,166,167,168,170,172,175,176,177,179,183,184,190,196,198,202,205,209,212,220,221,222,223,229,231,235,236,238,241,246,247,248,251,252,253,255,256,258,260,263,266,271,273,274,276,278,281,283,284,285,286,289,293,296,299,308,313,317,318,319,324,327,332,334,336,343,354,355,358,360,362,366,367,369,371,372},
{4,6,7,8,9,12,14,15,16,17,18,20,24,42,44,46,51,52,60,61,65,67,68,69,72,76,78,80,81,82,84,85,86,87,88,92,93,94,95,96,98,99,101,105,107,108,109,110,111,113,117,118,120,122,123,126,127,131,132,136,139,140,146,150,153,155,158,159,160,165,167,168,171,172,174,185,188,190,191,194,195,196,202,203,204,205,206,209,212,213,214,215,216,220,221,222,224,228,229,232,236,238,240,241,243,254,255,256,257,260,272,274,276,277,281,282,283,284,285,287,288,289,290,294,296,297,300,302,305,306,307,309,314,315,322,326,333,335,336,338,340,344,347,350,355,356,358,362,367,368,370,372},
{3,4,5,6,7,10,11,14,17,18,21,22,23,25,28,33,36,37,42,43,44,48,49,51,52,53,55,56,58,60,61,63,64,68,74,81,82,84,86,89,90,92,93,95,96,97,101,103,104,108,113,121,124,126,128,129,131,133,134,138,143,146,149,161,162,163,165,166,167,168,169,170,171,174,175,177,179,182,184,187,190,193,194,196,200,202,203,204,207,210,214,221,223,226,228,233,238,239,240,241,243,245,247,248,249,250,255,259,263,264,267,270,275,280,281,285,286,293,295,296,297,300,303,307,308,314,316,317,319,320,321,322,323,325,326,332,334,335,340,342,343,344,345,349,353,356,361,364,366,369,371},
{1,2,4,9,12,16,18,19,21,23,25,27,34,38,46,49,51,53,55,56,57,60,62,65,69,76,79,82,83,85,86,88,93,94,97,102,103,106,107,114,116,121,125,126,140,141,145,147,148,156,157,160,162,164,166,169,171,173,178,181,186,188,189,190,192,193,194,196,198,200,201,210,212,214,215,217,218,219,222,228,229,233,234,238,240,244,249,253,254,256,257,258,259,262,264,265,266,267,269,270,271,272,273,275,276,278,281,283,285,289,290,299,302,305,306,307,308,309,310,312,317,318,319,324,325,327,329,330,331,333,334,336,337,338,339,340,342,343,347,348,350,353,356,359,360,364,365,367,372},
{1,10,16,20,21,23,24,28,30,32,38,40,42,46,47,48,49,52,53,55,61,62,64,66,67,70,73,80,81,83,86,87,92,93,95,96,98,99,105,109,110,112,117,119,120,123,126,128,132,134,138,139,140,141,142,143,144,145,148,153,155,156,157,161,162,164,167,168,169,176,179,181,182,184,185,188,190,193,200,202,204,205,209,213,214,216,219,220,221,223,226,227,229,230,232,234,235,237,238,247,248,250,251,252,253,256,257,263,264,265,272,274,278,280,282,284,286,287,289,291,293,295,298,299,300,301,303,304,305,306,307,308,311,315,318,320,323,325,327,328,331,332,334,336,338,340,342,347,348,352,355,358,359,361,368,369,370},
{4,7,8,9,13,14,17,25,27,29,30,32,34,35,39,42,43,49,50,52,54,56,57,59,60,61,64,68,69,73,75,78,79,80,81,83,90,91,93,97,98,99,100,101,102,103,107,109,112,114,117,118,122,127,130,131,134,136,139,141,142,147,148,151,153,159,161,162,165,166,167,168,171,172,175,176,177,178,180,181,184,190,191,193,195,199,202,203,206,207,210,215,218,219,221,222,224,225,226,227,228,230,232,237,249,252,255,256,257,261,266,267,269,272,274,276,277,278,279,281,284,287,288,295,298,301,305,312,316,319,329,330,332,333,334,336,337,340,344,348,352,353,355,356,359,361,365,371,372},
{1,2,8,9,16,17,19,22,24,30,34,36,38,39,50,52,53,54,55,58,59,60,61,62,63,67,69,70,71,73,74,76,77,79,80,81,83,86,88,89,93,96,97,103,104,105,106,107,108,110,111,113,114,116,118,119,121,123,124,126,138,139,140,142,147,148,150,151,152,158,160,161,163,166,171,175,177,180,181,183,184,187,190,191,195,198,199,201,206,207,208,212,213,218,222,223,225,230,231,233,236,238,245,246,249,255,258,261,269,270,274,279,281,283,285,288,295,296,299,300,302,307,312,313,318,320,321,326,327,329,331,334,335,336,339,342,347,349,350,351,352,353,356,360,365,367,368,369,370,371},
{3,4,6,7,10,14,17,20,21,22,23,27,28,29,37,38,40,42,46,47,48,54,55,57,65,67,69,70,71,73,76,82,83,85,88,89,95,96,102,103,104,105,106,107,108,111,115,116,120,122,123,130,132,136,137,138,139,141,143,144,146,147,150,152,157,161,162,164,168,170,171,173,177,178,179,181,182,183,185,186,194,196,198,199,203,207,208,214,215,217,218,219,220,222,223,229,230,232,233,235,239,240,242,245,247,248,249,250,251,257,262,264,267,271,273,278,281,282,284,289,291,295,296,297,298,304,305,306,315,318,326,328,329,331,334,335,337,338,340,342,344,351,356,359,360,361,363,366,368,369,370,371},
{3,5,7,10,11,14,15,19,20,23,24,26,30,31,32,33,36,39,40,41,47,48,49,50,53,55,57,62,63,65,68,79,86,88,89,90,95,96,97,104,105,106,108,116,118,121,123,126,127,128,129,130,134,138,139,140,147,149,153,159,160,161,164,166,168,169,171,172,174,175,176,180,182,184,187,189,191,193,195,196,200,213,219,220,222,225,226,229,233,235,236,238,245,247,257,260,261,262,266,269,270,271,272,273,275,280,281,282,283,284,285,286,289,292,293,301,302,303,308,309,310,311,313,316,317,318,319,322,324,327,328,330,338,339,341,342,344,345,346,347,348,349,350,351,353,354,355,357,358,363,364,365,366,368,369,370,377,378,380,381,384,387,389},
{5,6,8,11,12,13,16,18,19,22,24,30,39,41,43,44,58,59,63,71,74,75,77,80,82,85,87,88,89,90,92,97,98,99,102,103,105,106,109,111,113,116,118,121,122,124,128,129,134,136,139,140,141,144,148,150,157,162,164,166,167,169,170,172,173,174,176,177,178,183,189,190,191,192,193,194,196,197,200,201,202,213,216,218,219,222,223,224,226,229,234,238,242,243,244,246,247,255,257,263,266,268,271,273,276,280,285,286,293,294,297,302,303,307,309,312,315,316,317,322,323,324,327,334,336,338,339,341,343,346,348,349,352,353,354,356,358,361,362,363,365,367,369,370,373,375,378,379,382,384,385,387,389,390},
{4,6,8,19,25,26,27,34,36,37,44,46,48,50,52,54,55,56,62,66,67,72,73,77,81,82,83,89,92,93,94,95,103,109,111,113,115,117,118,121,125,126,129,131,132,137,141,144,145,146,147,148,150,153,155,156,159,160,162,163,179,183,185,189,191,197,200,204,207,209,210,215,216,218,219,221,222,226,228,229,233,235,236,239,245,247,249,250,251,252,256,258,264,265,266,268,273,274,276,279,285,286,287,288,290,291,295,297,298,300,303,305,306,309,313,314,315,319,322,328,332,336,337,338,341,343,346,348,354,355,358,365,369,373,376,377,383,387,393},
{1,2,3,5,9,15,18,21,25,26,27,31,42,49,50,51,56,57,60,63,66,68,70,71,74,76,78,84,86,88,93,94,96,97,101,104,105,106,107,108,112,113,114,115,118,120,123,124,129,131,135,137,141,144,146,147,150,153,154,155,156,161,162,164,165,166,167,168,172,173,174,180,182,184,187,191,194,195,196,199,200,201,202,203,205,206,211,212,213,214,215,220,222,223,225,232,236,237,239,240,242,244,247,249,253,254,256,259,260,261,267,268,269,273,276,279,281,282,284,285,287,295,296,299,302,308,315,316,320,325,330,333,335,339,346,347,348,349,350,351,352,354,355,357,358,362,363,364,365,367,370,374,376,379,384,391},
{2,7,10,11,13,14,19,22,23,26,29,31,34,38,41,45,46,47,49,52,55,56,58,65,67,68,69,70,73,74,77,80,82,86,88,90,91,92,93,94,96,97,98,101,104,105,107,108,109,110,113,114,115,118,120,121,123,127,128,131,138,142,143,147,149,150,153,155,156,159,160,163,165,168,169,170,171,174,176,179,180,181,182,183,185,186,187,188,190,192,195,196,199,200,205,206,210,211,212,214,218,220,222,223,226,229,230,232,235,242,243,249,252,254,256,259,260,262,263,264,266,267,268,270,271,273,274,275,280,283,287,288,290,291,294,295,298,299,300,301,302,305,307,313,318,321,322,323,325,326,330,331,332,335,336,339,342,345,346,350,354,357,358,360,361,362,364,367,369,377,378,380,382,384,389,390,392},
{1,6,8,9,10,12,13,14,16,20,21,22,23,28,33,34,35,37,38,41,43,44,51,52,53,54,57,59,60,61,62,63,64,65,68,81,83,84,85,87,88,91,92,94,95,98,100,107,108,110,114,115,117,120,121,122,124,125,126,129,131,139,140,141,142,143,144,148,151,153,155,156,160,162,163,165,166,170,171,173,179,180,186,188,192,196,197,199,203,204,205,206,208,209,220,223,224,226,230,231,232,233,234,235,236,237,238,240,241,242,243,244,245,246,247,249,252,255,256,257,258,262,263,264,266,269,271,272,273,275,279,283,286,287,296,298,301,302,304,305,306,307,308,312,313,317,322,323,326,327,329,330,332,335,337,340,341,344,345,349,360,362,364,365,370,373,374,375,377,381,386,387,388},
{3,7,13,16,18,20,22,26,28,30,31,32,33,38,39,41,43,46,49,50,52,53,55,57,60,63,64,68,73,78,83,86,87,89,90,91,92,94,96,97,98,101,103,108,109,110,111,113,115,117,121,123,127,129,131,132,135,136,137,139,141,146,147,151,153,155,156,157,158,159,162,165,167,171,174,183,185,187,190,194,195,200,201,202,203,208,214,216,218,224,225,227,228,229,235,236,237,238,240,242,244,247,248,250,256,260,264,265,266,268,269,270,272,280,281,282,285,289,291,292,295,299,300,302,304,306,313,314,319,322,324,328,329,331,333,334,336,340,342,343,348,349,350,352,356,358,364,367,370,371,375,381,382,387,391,393},
{4,5,7,14,21,23,37,40,42,50,51,57,58,60,64,66,73,74,75,76,77,78,79,83,87,89,90,91,92,93,94,96,101,102,104,108,109,110,112,116,118,120,122,127,129,131,136,138,140,143,147,151,153,154,155,156,157,159,167,169,172,174,175,177,183,186,187,190,192,195,196,197,198,202,205,207,209,213,216,224,235,236,241,242,243,246,247,248,251,252,253,254,256,259,260,266,270,272,275,277,278,280,281,288,290,291,293,294,297,309,313,316,317,320,326,327,329,330,333,336,338,342,344,348,349,352,353,356,357,360,364,368,369,370,372,377,378,385,388,389,390,392,393},
{1,6,12,14,15,16,17,22,25,26,28,30,33,34,42,43,48,50,55,58,59,62,63,64,66,67,68,75,77,79,81,85,91,92,94,96,97,99,100,102,103,105,107,108,109,112,113,125,126,127,129,134,138,140,143,145,149,153,155,156,157,163,164,165,167,168,169,170,172,174,176,177,178,179,185,186,195,198,199,200,201,204,207,208,211,215,217,225,226,227,228,230,234,236,238,240,241,242,243,244,246,253,255,257,258,262,265,266,268,273,274,279,284,285,289,291,292,300,303,304,308,313,318,320,321,326,328,329,331,333,337,338,340,341,343,344,352,353,357,358,359,360,361,363,364,368,369,375,380,381,384,386,387,393},
{1,6,7,8,13,15,16,17,21,24,25,29,30,31,32,41,42,46,47,53,54,57,61,62,69,70,72,75,76,78,79,80,83,84,85,86,87,89,91,95,98,99,100,101,102,103,107,110,111,118,119,121,122,123,124,126,130,139,140,144,145,154,155,158,159,160,163,164,165,167,171,172,177,181,185,190,197,198,206,207,211,213,215,219,220,224,231,240,243,244,252,255,256,258,259,266,269,270,274,275,281,283,284,286,291,294,295,298,299,301,305,308,310,311,316,320,321,322,324,326,332,334,336,338,340,342,343,344,347,351,352,356,357,361,363,365,366,368,369,370,371,374,375,376,378,379,382,386,387,393},
{1,2,3,12,15,17,18,22,23,25,33,35,40,41,48,51,52,53,54,55,60,61,62,65,76,77,79,80,81,86,87,88,92,93,95,97,101,106,107,108,109,110,111,112,115,116,117,122,124,127,133,134,135,137,139,145,146,147,148,153,154,155,162,165,168,169,173,179,183,187,188,189,190,191,193,197,203,204,208,212,213,219,221,222,226,228,230,231,232,242,246,248,249,252,254,257,267,269,270,271,272,273,280,281,284,286,287,292,293,294,295,297,299,300,301,303,306,308,310,314,315,316,317,319,328,329,330,332,334,342,343,349,354,355,358,361,362,363,364,365,367,368,370,372,373,377,382,383,385,387,388,389},
{2,3,4,7,9,12,14,16,17,28,31,32,40,44,48,51,52,56,63,64,65,66,68,70,71,74,76,77,84,89,90,91,93,94,96,98,101,102,103,108,111,114,115,118,122,127,133,134,136,139,141,145,149,151,154,155,158,160,161,163,166,170,172,184,185,189,190,192,197,200,207,209,210,212,213,215,222,228,230,232,234,235,236,237,238,241,247,255,256,259,261,264,267,269,271,272,275,278,280,281,284,287,293,294,296,303,306,307,311,314,320,321,323,327,330,332,334,336,342,344,345,347,352,354,356,359,363,365,367,370,371,377,389,392,393},
{1,11,14,16,17,19,20,21,22,23,24,26,30,32,33,36,38,39,40,41,45,46,47,48,49,51,55,56,59,62,63,66,67,68,70,76,77,78,82,83,84,85,89,90,91,96,105,110,111,120,126,127,134,135,136,137,141,142,145,146,148,149,152,153,154,156,157,158,159,162,164,166,173,177,180,182,183,185,188,189,190,198,199,201,207,208,211,214,221,222,224,226,227,228,231,233,240,241,246,247,249,251,252,254,255,256,259,260,262,264,267,268,272,274,275,279,283,290,291,293,294,295,296,302,303,304,308,309,310,316,317,319,321,324,325,327,328,337,340,347,352,353,354,357,359,360,362,365,366,370,371,373,376,378,379,382,384,385,386,389,391,393},
{1,14,17,18,23,24,28,29,31,32,33,34,37,38,39,47,54,56,58,59,61,68,70,73,79,81,86,87,89,90,95,98,104,105,117,122,123,124,125,126,129,132,134,137,139,148,149,151,159,165,166,168,174,177,179,183,187,191,192,195,197,200,203,205,208,210,211,213,214,216,218,219,222,224,226,227,228,229,231,232,240,244,247,248,250,251,260,262,264,266,268,269,270,271,272,276,277,279,281,283,284,286,288,297,298,302,303,305,306,308,310,311,312,314,315,317,319,321,324,328,330,332,335,337,341,342,343,346,359,363,364,367,375,376,378,380,382,385,386,391,392},
{7,12,14,15,16,18,22,25,31,34,38,42,49,52,57,58,62,65,67,69,70,71,72,73,79,80,82,85,86,92,94,95,99,100,101,102,103,104,105,110,113,120,126,127,129,130,134,137,138,140,143,144,148,149,153,156,158,160,161,162,163,164,165,166,179,181,182,183,184,188,189,190,191,192,193,194,196,198,202,204,205,207,208,214,215,218,219,222,224,225,229,230,231,233,235,236,237,238,241,242,248,250,251,252,254,255,257,258,259,263,264,273,274,277,279,287,289,292,295,297,298,302,305,312,314,316,317,318,319,320,324,325,327,332,334,336,337,338,341,343,345,346,356,359,362,369,370,371,373,374,377,387,388,389,390,391,392},
{4,5,7,10,13,14,16,22,23,25,27,31,36,37,45,46,48,50,51,52,53,57,59,63,66,71,73,75,76,77,86,90,94,99,100,102,103,108,115,119,120,121,122,128,132,133,135,137,139,142,143,145,151,156,158,162,166,168,170,172,173,180,184,186,188,189,191,192,193,196,202,203,205,207,212,214,215,216,217,218,220,221,227,229,233,234,235,237,241,243,244,246,247,248,249,251,253,255,257,258,263,264,265,266,269,274,276,277,278,282,283,284,287,291,295,296,298,303,307,309,311,313,314,315,317,319,324,325,326,330,331,332,333,341,346,347,348,353,354,356,358,360,364,368,370,372,373,375,377,380,381,384,385,386,387,388,389},
{4,5,8,9,10,13,14,20,23,24,25,26,27,28,29,30,34,35,36,37,42,44,52,53,54,56,57,59,60,61,64,66,67,68,69,73,74,75,77,82,83,86,88,89,91,99,106,107,108,113,120,123,124,127,130,131,134,138,141,146,152,160,161,163,165,166,176,177,178,179,180,181,185,187,190,192,194,197,202,203,205,211,213,214,216,219,222,229,235,237,242,247,249,250,251,253,255,260,267,268,269,271,274,275,288,290,292,296,301,302,307,310,311,312,313,318,325,328,330,332,333,336,337,340,342,344,345,347,354,357,358,361,362,366,371,374,376,377,380,381,382,383,393},
{6,9,12,14,20,26,28,30,31,32,39,40,42,44,46,48,50,52,53,54,57,58,60,62,64,65,66,67,69,75,77,78,81,88,89,91,93,95,99,100,101,108,109,111,115,119,120,121,123,124,125,129,130,132,133,138,140,141,143,147,148,150,151,152,153,157,162,165,169,174,176,178,184,189,192,194,202,206,207,212,215,216,220,225,228,230,231,232,236,237,239,241,245,249,250,252,253,255,257,258,259,262,263,265,268,271,272,273,274,279,281,282,283,285,288,294,297,298,299,300,301,302,303,305,306,307,308,309,313,314,315,317,318,319,321,322,323,324,325,331,332,334,337,338,339,343,346,347,351,353,354,355,358,361,365,369,370,373,374,376,377,379,381,387,390,391,393},
{4,6,9,10,13,14,17,18,21,29,31,32,34,36,38,41,44,45,46,48,53,55,56,58,59,60,63,68,71,75,77,81,83,86,88,91,93,94,96,100,101,103,106,108,110,111,112,114,117,119,125,126,130,137,138,144,146,152,155,157,158,161,167,169,170,172,173,175,176,182,185,188,189,192,193,196,198,200,201,203,204,205,207,208,209,211,217,219,220,224,226,227,229,231,238,240,241,244,245,247,248,250,252,253,255,256,257,258,263,269,275,281,285,286,294,295,297,299,303,307,308,311,315,316,318,319,321,323,324,325,330,331,332,338,341,344,345,346,348,353,359,360,361,365,367,370,372,378,379,384,388,390,391,392},
{5,10,12,14,15,16,18,22,24,25,28,31,38,43,44,45,52,53,54,55,56,57,60,62,63,64,65,66,68,70,72,73,74,83,84,87,89,90,91,94,95,96,97,99,101,102,104,106,108,113,115,116,118,119,121,126,134,135,139,140,142,143,145,148,150,151,155,156,157,158,163,165,170,171,174,175,177,179,182,183,187,191,192,193,194,195,200,208,209,212,214,215,217,218,219,222,226,227,228,230,231,236,240,242,244,245,247,250,251,252,255,256,257,258,259,265,267,268,272,274,276,278,282,284,286,288,289,290,291,294,295,296,300,301,302,304,305,308,309,311,313,314,319,320,322,323,325,326,329,331,332,333,337,338,339,341,342,345,346,347,348,352,354,355,356,357,358,361,362,363,365,368,369,372,373,374,375,376,378,379,383,385,386,389,392,393,394,395,399,401,402,406,407},
{3,4,6,8,9,11,12,13,15,22,23,24,25,27,32,34,35,36,42,44,49,50,51,55,56,57,58,59,61,65,67,68,71,78,79,80,82,85,86,89,92,94,95,96,103,106,107,113,118,119,120,123,125,126,129,134,135,136,137,138,140,141,142,143,144,147,154,155,158,164,165,166,169,172,174,178,184,188,191,196,197,199,201,211,212,213,216,217,218,219,223,225,226,228,229,231,232,234,240,243,246,248,250,251,254,255,261,263,264,266,267,274,275,276,277,281,282,284,285,287,290,292,294,296,302,305,308,309,311,312,313,315,318,320,321,323,324,326,327,336,337,339,340,341,342,346,347,349,350,352,353,355,357,361,362,365,367,368,371,372,373,375,376,379,385,387,388,389,392,393,394,395,398,401,403,404,405,406,407,409},
{2,4,5,8,9,11,12,15,16,17,21,23,24,25,26,28,31,33,34,39,42,48,53,55,56,58,59,60,63,64,65,69,72,75,77,78,80,81,82,84,86,88,89,92,93,94,97,98,105,110,114,117,120,121,122,123,125,128,129,130,131,132,135,136,142,144,145,146,147,150,153,155,160,162,163,165,168,172,173,175,176,177,179,182,183,184,187,192,200,201,207,208,212,214,215,216,217,220,221,222,223,225,227,228,229,232,234,237,238,240,242,244,245,246,247,248,251,254,256,262,265,266,267,270,275,276,277,284,286,287,288,292,293,299,300,304,305,306,309,310,311,314,316,319,320,321,326,327,332,335,338,339,340,345,351,353,354,355,360,362,368,372,374,378,379,380,383,386,388,391,392,396,400,401,402,404,405,410},
{1,4,5,6,8,12,14,16,17,18,20,23,25,28,29,30,31,32,34,35,37,42,46,49,50,52,55,57,60,62,64,65,67,69,74,75,76,78,80,82,84,86,88,89,91,92,97,98,99,100,108,114,116,117,123,124,125,128,129,132,134,137,140,141,148,149,150,152,159,160,162,166,168,173,174,175,177,180,189,192,194,198,202,203,206,208,210,211,212,214,215,216,220,221,222,226,228,229,232,234,235,239,240,242,246,247,248,249,250,254,256,257,264,267,268,277,278,280,284,286,295,297,298,299,300,301,303,308,310,317,322,323,325,326,327,330,331,337,339,341,343,344,349,352,354,356,358,359,366,369,374,375,376,377,379,380,381,387,389,392,393,394,395,397,398,403,406,407,410,411},
{3,4,5,6,11,12,14,15,16,22,26,28,30,33,34,36,38,43,44,48,49,51,54,56,57,59,60,62,63,66,68,70,71,73,78,81,86,88,90,93,95,96,98,100,102,104,106,110,111,114,115,119,123,124,125,126,128,129,130,136,138,143,146,150,151,152,154,156,162,163,165,166,167,168,173,183,184,185,186,187,190,196,197,200,201,203,209,210,214,215,218,222,232,236,240,241,243,245,247,248,249,251,253,255,256,257,258,261,263,266,268,273,275,276,277,280,283,285,286,293,296,298,301,302,309,312,313,315,316,319,320,322,324,326,329,331,334,335,336,337,340,343,345,348,358,360,361,365,368,370,371,372,377,378,379,382,385,386,387,394,395,397,401,404,405,406,409,410},
{2,3,6,7,14,15,16,19,20,21,28,29,32,33,36,42,43,48,49,50,51,52,55,56,64,66,67,68,71,77,85,86,87,89,90,92,93,102,103,105,109,110,111,112,121,124,127,128,129,130,131,134,136,137,138,139,141,143,144,147,148,149,151,153,157,158,159,161,163,164,165,166,169,170,175,179,180,181,184,185,190,191,194,196,198,201,203,204,207,212,215,218,219,221,222,223,227,229,230,232,233,237,239,241,243,245,252,254,258,259,265,266,267,268,269,270,275,278,281,291,292,294,296,297,298,300,303,306,307,309,311,313,314,315,318,320,322,325,326,331,332,335,338,339,342,347,348,349,365,367,369,370,375,382,383,384,386,390,396,398,402,404,405,406,407,408,411},
{1,2,3,4,5,6,9,13,14,15,17,18,19,20,24,26,32,34,35,39,43,44,46,54,56,57,59,63,64,65,66,72,73,76,77,81,82,83,87,88,89,93,94,95,96,97,100,103,104,105,106,107,111,115,116,119,120,121,130,131,132,133,134,137,139,140,141,142,143,144,145,146,148,149,155,159,163,169,170,171,174,175,178,181,192,196,198,201,204,206,210,211,215,216,225,229,232,233,234,235,236,238,240,242,247,248,249,250,254,257,259,261,267,270,271,274,275,276,277,279,286,287,291,294,296,298,300,308,309,311,312,313,315,318,324,334,336,337,340,346,348,350,352,354,355,359,360,361,362,364,368,370,372,374,375,377,380,382,385,390,392,393,395,397,399,400,401,402,404,411,412},
{2,6,7,13,27,28,29,30,31,32,34,36,37,40,45,53,55,56,58,62,63,71,72,76,78,79,82,85,89,93,94,95,96,97,98,100,105,106,110,111,113,115,125,126,127,131,132,133,134,139,142,144,145,146,148,149,153,158,159,162,167,168,169,172,173,176,178,181,182,185,189,192,196,197,204,206,208,210,214,218,219,222,226,227,228,229,232,233,234,236,238,239,240,241,243,244,245,249,250,253,255,256,257,259,260,262,264,266,267,270,271,272,273,274,277,278,282,284,285,286,287,289,295,296,300,303,304,305,306,308,312,322,323,324,328,332,333,334,335,337,339,340,341,343,344,346,347,351,352,357,358,364,365,366,367,368,371,372,374,375,379,381,382,383,387,388,389,398,399,400,402,403,408,409},
{3,5,6,11,12,15,18,21,23,25,27,30,31,34,36,38,42,44,45,47,57,58,59,61,63,65,67,69,71,72,74,75,76,78,81,83,86,87,89,90,91,96,98,99,100,103,106,107,111,112,113,114,116,119,121,122,129,133,138,142,146,148,150,151,152,154,156,159,163,164,169,171,173,174,175,176,178,180,181,182,186,188,191,192,194,205,208,210,211,214,216,218,219,223,228,229,230,231,236,239,241,242,249,250,252,259,262,263,266,267,268,269,273,274,275,276,278,279,280,281,283,287,289,293,294,295,298,299,302,303,308,309,311,312,313,315,318,323,324,325,327,332,334,337,343,344,345,347,349,353,355,357,358,361,365,366,367,369,370,373,376,378,379,380,390,394,395,399,407,409,411,412},
{4,6,7,9,11,12,13,20,21,23,26,27,28,34,35,36,38,39,41,42,43,44,47,49,54,55,57,59,62,63,65,73,75,78,79,83,88,89,91,92,93,100,101,104,105,108,110,115,116,119,120,121,122,123,125,126,128,131,132,133,140,143,144,145,149,151,157,159,161,162,175,177,183,184,185,188,196,197,199,201,203,206,207,209,213,214,216,218,222,226,227,232,233,234,235,236,240,241,242,245,246,248,249,253,255,259,262,264,267,276,277,278,280,281,285,291,293,294,297,299,301,303,306,308,310,312,313,318,323,324,325,328,329,331,333,335,337,338,342,343,350,351,354,356,357,358,364,365,368,369,370,371,372,373,374,378,382,387,390,393,395,396,400,402,403,406,410,411,412},
{1,2,3,6,7,8,12,17,22,25,27,37,38,41,47,49,50,51,53,54,55,56,58,59,60,62,66,70,71,73,74,77,78,80,85,87,90,91,94,96,100,102,111,112,113,115,118,132,133,136,138,140,141,142,145,149,150,151,154,156,158,160,161,163,164,166,167,168,175,176,177,178,182,190,197,198,200,207,209,212,213,215,216,217,223,234,237,240,241,242,243,244,247,249,253,258,261,263,264,265,266,267,270,272,274,276,279,280,282,287,288,291,295,296,302,304,313,315,318,319,320,322,324,325,329,330,334,340,341,343,350,351,352,353,354,356,358,363,370,371,373,374,376,378,381,383,384,386,387,388,390,391,392,394,395,397,398,399,401,402,404,408,409,410,411},
{2,4,12,13,15,16,17,18,21,22,23,25,27,29,38,49,52,53,54,61,62,65,68,75,76,77,82,88,94,96,97,98,100,101,103,104,105,109,111,114,115,121,129,131,132,135,139,144,146,149,153,155,157,162,163,172,175,178,180,182,184,185,187,189,190,191,195,198,199,204,205,208,218,221,228,229,230,231,233,235,236,241,243,244,245,246,247,248,253,254,256,259,261,267,269,271,273,274,277,279,288,289,292,296,297,298,301,302,303,305,306,308,309,310,312,313,319,323,327,335,336,339,341,343,344,345,346,347,348,350,352,354,355,360,363,365,367,368,369,374,377,378,380,386,387,388,391,393,396,397,398,400,401,402,403,405,411,412},
{1,3,5,9,11,12,13,15,17,22,28,35,36,37,42,44,45,47,49,50,52,54,55,58,59,61,63,66,72,74,76,78,79,80,82,83,84,86,88,91,92,95,97,99,100,101,103,107,108,110,111,113,115,116,117,121,125,129,131,132,133,134,135,137,139,142,144,146,147,148,153,156,157,159,160,163,164,166,168,169,170,173,177,178,181,182,185,190,192,193,198,199,200,205,207,209,212,218,224,227,230,232,233,235,237,238,239,242,243,244,245,250,251,252,256,262,263,268,269,272,274,275,276,278,283,290,291,292,295,296,298,301,303,306,307,308,315,316,318,321,325,326,329,334,336,337,344,346,347,348,350,351,354,355,357,358,359,360,361,362,363,364,366,367,368,374,375,376,379,386,388,389,391,393,394,395,396,400,401,402,408,409,410,411,412},
{1,4,5,6,7,11,13,16,18,21,24,28,29,31,32,33,38,40,41,42,47,49,52,54,57,61,62,67,70,72,73,75,76,78,79,81,82,90,92,94,95,99,102,105,107,108,109,115,118,120,121,122,123,124,132,133,135,136,137,139,142,143,145,148,152,154,157,159,161,162,164,166,167,168,169,175,182,183,184,190,193,203,207,212,213,214,221,225,232,233,234,235,236,245,252,253,254,255,257,258,260,261,262,263,265,267,268,269,275,276,278,280,283,284,286,291,296,298,303,304,306,307,308,310,313,316,319,325,328,329,330,331,333,335,339,341,342,345,348,349,352,353,355,356,357,359,364,368,370,371,372,373,376,382,385,390,391,393,394,395,396,403,407,408,411,412},
{9,10,11,13,16,18,19,20,22,26,29,30,32,34,37,42,43,46,47,50,53,57,59,60,63,69,72,73,75,76,81,85,88,89,91,93,94,95,96,97,100,103,109,111,115,117,118,120,121,122,125,127,128,129,132,134,136,142,143,144,147,149,150,154,155,156,165,168,169,170,172,174,176,184,185,187,188,189,192,196,197,198,202,210,211,215,216,218,220,230,232,233,234,236,237,239,242,244,246,248,251,255,257,258,260,264,265,268,269,275,283,284,286,287,288,289,294,295,300,302,303,306,309,310,311,313,314,316,317,318,323,327,328,329,330,333,336,337,348,351,352,355,361,363,364,365,366,369,371,372,373,374,375,387,389,390,391,398,400,404,406,407,409},
{1,2,3,4,7,9,11,14,15,21,22,24,25,26,27,28,30,31,36,39,41,42,50,51,53,56,58,59,60,61,63,64,65,68,70,74,78,80,81,83,84,88,93,98,101,103,105,109,110,111,116,117,122,126,130,131,132,136,138,140,141,142,148,150,151,153,155,156,157,165,170,171,174,175,176,177,179,183,187,192,193,195,196,197,198,201,205,206,212,213,214,216,217,219,223,225,228,229,234,235,238,239,243,246,247,248,249,257,260,264,265,269,277,279,282,283,284,286,288,291,293,296,297,299,300,306,307,309,311,313,318,321,326,327,328,329,330,333,335,336,337,346,352,353,358,359,361,366,368,369,370,372,373,374,375,380,381,382,385,387,389,390,392,394,396,397,400,407,409},
{3,4,7,8,9,11,13,14,19,24,26,27,29,36,39,42,43,44,46,47,48,53,54,58,59,60,61,65,68,69,70,74,75,79,83,87,92,94,95,96,99,104,105,109,113,115,116,118,121,122,123,128,131,133,136,139,143,150,151,152,155,162,165,167,168,169,172,177,181,185,191,193,195,196,198,199,202,208,212,213,214,215,216,217,222,223,225,228,231,233,236,237,239,241,242,243,248,251,255,257,258,261,263,269,271,275,277,278,280,282,283,287,288,289,293,295,298,301,306,308,309,310,314,317,322,324,327,329,331,333,335,337,340,341,342,346,349,350,359,360,365,366,369,370,372,373,377,378,380,381,383,388,391,393,394,395,396,397,399,402,403,412},
{2,3,5,7,10,12,15,18,22,24,25,27,29,34,36,37,39,45,46,47,49,50,55,56,57,68,70,77,78,86,88,89,90,93,95,98,100,101,108,110,111,112,115,120,123,126,128,130,131,132,136,140,146,147,149,155,156,158,165,167,168,170,171,175,176,177,181,184,185,186,187,190,191,195,198,202,207,208,209,211,212,214,218,220,221,223,224,227,229,232,234,235,236,237,242,245,248,251,256,260,261,263,264,265,268,272,275,278,279,282,283,286,287,289,290,291,296,297,300,302,304,306,307,308,309,316,318,327,328,337,347,349,350,356,361,362,364,368,369,370,374,375,379,381,383,384,386,388,389,399,404,405,406,407,410,412},
{1,2,10,12,14,15,18,19,22,23,24,25,29,34,40,42,46,51,52,54,63,67,71,73,75,76,77,79,80,86,93,94,99,100,101,102,105,112,115,116,117,118,121,125,131,134,136,140,141,143,144,145,152,153,154,156,160,170,171,178,181,183,187,188,193,195,197,198,199,201,202,205,210,211,213,214,215,216,217,223,225,229,232,233,239,241,242,245,247,255,257,258,261,262,266,269,274,275,278,282,283,284,286,287,289,290,291,296,298,299,302,306,310,311,313,314,315,317,318,319,321,324,326,327,328,336,337,338,339,343,344,350,351,352,353,354,359,363,370,373,375,377,380,381,384,385,386,391,392,395,407,412},
{1,5,10,13,16,18,19,24,33,34,35,40,41,42,45,49,50,56,57,64,67,69,73,74,78,79,82,85,86,87,93,95,96,98,99,101,102,103,105,107,110,111,113,115,119,123,124,126,128,129,130,133,134,136,140,142,144,145,149,152,153,158,159,162,164,165,169,171,172,173,175,176,181,183,188,193,195,199,201,203,205,208,209,210,212,213,215,218,219,221,222,223,224,226,230,231,235,238,239,242,244,245,249,251,259,260,272,273,275,276,280,281,284,285,286,297,300,301,303,309,310,313,314,315,317,319,326,332,333,336,337,341,342,344,346,348,351,353,357,358,359,361,363,365,375,377,378,384,388,389,392,393,394,395,397,399,402,405,406,410,411},
{1,2,4,5,6,9,10,13,16,19,22,25,29,30,31,36,38,40,41,42,47,49,52,55,58,67,71,72,73,77,80,81,85,86,87,88,91,96,97,101,104,107,109,112,113,116,123,126,132,136,137,139,142,146,151,160,163,165,166,167,169,171,172,173,174,176,178,179,180,185,187,193,197,199,204,212,213,222,230,231,233,235,237,238,242,243,245,248,252,253,258,260,261,262,266,267,270,272,273,274,275,278,281,282,283,289,292,293,296,299,301,304,307,308,309,312,318,319,323,324,326,330,332,336,337,338,343,345,346,348,349,352,353,356,358,360,365,366,369,370,373,375,378,380,381,385,387,388,390,391,392,403,404,405,409,410,411,416,423,425,432},
{4,5,7,8,9,11,15,17,18,19,20,29,32,33,34,37,42,43,44,46,51,52,56,61,64,69,70,71,75,77,78,80,81,82,84,86,94,96,98,99,103,106,107,108,111,113,120,122,123,124,125,127,128,131,133,136,138,139,152,154,155,156,159,162,164,169,171,172,175,177,178,179,182,183,184,186,187,189,191,192,193,195,201,203,205,208,209,213,217,222,227,230,234,235,237,239,240,241,242,245,249,250,251,252,255,256,257,258,261,262,266,268,271,273,275,277,278,281,284,286,287,292,294,296,298,300,304,306,308,309,310,316,317,330,333,336,340,341,342,344,347,349,351,357,361,366,367,369,371,372,373,381,383,385,389,390,393,397,398,404,405,406,407,411,413,417,424,426,429,430},
{3,4,5,7,8,9,11,13,14,21,23,26,27,34,36,39,44,47,48,49,52,54,62,64,66,67,72,73,74,75,76,79,80,81,82,85,86,89,90,91,92,95,96,97,102,104,110,112,115,122,131,132,133,141,143,144,149,150,152,154,155,157,158,159,164,169,173,174,188,190,191,194,195,196,198,202,203,205,206,213,215,219,220,227,228,229,230,234,236,237,240,243,244,246,247,248,249,250,251,252,255,256,258,261,262,264,266,268,269,270,271,272,273,276,280,285,293,296,297,301,302,303,304,310,311,314,315,319,320,324,325,328,330,335,337,340,341,344,347,349,350,351,352,354,355,357,358,359,360,366,368,371,373,374,378,382,385,387,389,391,393,394,395,397,405,406,408,410,418,420,425,426,427,431,432},
{4,5,8,9,10,12,13,15,16,21,22,24,26,30,31,32,37,39,41,44,46,49,53,54,55,56,64,66,69,71,73,76,78,79,80,81,83,86,87,88,90,91,92,93,95,97,101,102,105,106,110,111,114,118,120,125,126,130,134,137,138,141,142,143,145,147,151,152,153,154,157,158,163,170,176,180,182,184,185,187,188,189,191,192,193,194,199,200,207,208,209,211,212,214,220,221,227,228,229,230,234,235,237,240,242,251,252,263,264,265,268,271,274,276,282,284,285,291,294,297,299,300,304,305,309,312,314,316,317,318,319,320,322,326,335,336,339,340,346,351,352,359,365,367,368,369,373,374,377,378,379,381,383,385,386,387,391,394,395,397,398,404,407,408,413,420,421,424,425,427,430,431},
{4,5,9,13,15,18,22,34,38,39,41,45,48,50,55,60,61,63,64,65,67,76,77,81,82,86,94,96,99,101,105,109,112,113,114,115,117,118,119,126,127,132,133,136,137,138,141,143,146,149,150,151,153,156,157,164,165,169,170,171,173,174,175,180,184,189,194,195,196,198,202,203,206,208,212,217,219,224,227,236,238,240,242,244,246,247,251,253,260,261,265,272,274,275,277,282,284,285,286,288,289,291,293,296,299,301,302,305,308,309,311,314,315,318,319,321,323,325,327,332,334,335,339,346,351,352,353,354,355,361,364,366,368,371,374,378,379,380,382,383,384,386,388,391,395,402,403,404,405,406,410,416,418,420,423,427,430},
{2,4,5,6,7,13,14,15,16,17,18,21,25,26,27,31,33,35,36,37,38,41,43,51,53,54,56,57,60,61,63,66,67,72,74,76,77,78,80,81,83,85,87,91,94,95,96,97,98,111,113,115,117,119,120,121,132,134,135,139,141,142,145,148,149,152,153,154,156,157,158,160,161,162,165,166,169,173,174,179,183,186,187,188,189,194,195,197,198,205,207,210,212,219,220,223,226,228,232,233,238,241,245,247,250,251,252,254,255,256,262,267,269,271,272,276,277,279,281,286,288,293,296,297,302,303,304,305,307,313,315,316,319,320,322,334,335,343,345,349,350,351,354,356,358,361,362,367,369,372,375,378,380,381,383,384,388,389,392,393,394,395,396,397,399,401,403,404,407,409,410,412,413,415,418,419,421,423,426},
{2,3,8,9,10,12,18,20,21,22,35,38,40,41,43,44,51,56,67,68,69,74,81,84,87,92,93,95,97,101,103,104,106,109,110,112,116,118,120,121,123,124,125,127,130,135,136,137,139,141,142,143,145,152,155,158,159,161,167,168,170,173,174,175,179,181,184,186,190,193,196,197,200,204,205,206,212,213,218,221,222,223,225,227,228,232,237,238,242,243,247,251,254,255,256,261,264,265,268,271,273,275,276,279,282,284,285,289,292,294,296,301,302,308,310,312,314,315,316,317,318,321,323,324,325,327,330,331,332,333,334,335,336,340,342,345,347,350,352,354,355,356,360,362,365,367,368,374,375,380,382,383,386,389,390,393,394,398,400,401,402,404,406,407,408,409,418,419,420,423,427,428,430,432},
{2,3,9,10,14,18,19,20,21,22,29,31,33,34,35,37,39,41,43,45,46,47,51,55,56,58,61,63,65,66,69,71,75,79,80,82,83,84,86,91,94,95,97,99,100,101,102,105,106,107,108,109,113,115,120,121,123,125,127,128,133,135,137,141,143,144,145,146,151,155,156,157,158,166,167,174,178,179,180,181,183,184,185,186,189,191,199,202,203,206,207,208,209,211,215,218,219,221,222,223,226,227,228,230,232,233,235,236,238,239,241,243,251,252,253,258,259,260,262,265,268,270,271,272,275,278,283,289,290,294,298,301,303,304,308,312,316,318,320,323,325,326,329,330,331,332,333,334,335,336,342,344,348,354,356,357,359,364,366,371,376,379,381,385,386,387,389,390,392,396,397,401,404,406,408,409,410,412,414,415,416,417,418,420,422,423,425,427,429,430},
{1,3,4,6,7,9,10,12,14,18,27,28,29,31,32,36,38,42,45,48,49,51,54,56,58,61,64,70,73,74,79,81,83,95,97,101,102,103,104,105,107,109,110,114,120,121,122,123,125,127,132,134,137,138,139,142,146,147,148,149,153,154,155,156,157,159,160,165,169,171,180,181,183,185,189,195,197,201,202,205,207,209,210,212,222,223,224,228,233,234,236,237,246,247,253,259,260,261,262,265,267,270,272,274,275,276,281,283,288,289,290,294,296,301,304,305,308,311,313,314,317,323,325,326,327,328,330,331,332,334,335,337,338,340,341,342,343,344,349,350,352,353,354,356,357,361,363,367,372,374,375,377,378,379,382,386,387,388,395,397,399,403,405,406,411,415,416,420,423,429},
{3,7,9,11,12,14,15,18,21,22,24,25,26,28,30,32,33,34,35,36,37,38,39,40,41,46,48,50,51,52,54,58,59,64,71,73,77,81,86,87,89,94,98,99,100,105,109,110,111,114,115,116,117,118,120,122,123,124,127,128,130,132,133,135,138,141,143,144,146,149,151,154,155,159,162,164,168,170,173,174,176,182,183,186,191,192,196,198,199,208,221,223,226,230,236,237,243,244,246,247,248,250,251,256,258,259,260,261,265,268,269,273,276,277,280,284,292,293,304,318,320,323,325,327,328,329,330,331,333,338,347,348,351,355,358,359,364,368,369,371,372,373,378,379,382,384,387,389,390,394,396,401,402,404,408,411,414,415,419,424},
{3,5,6,8,9,12,16,17,20,21,25,32,34,37,38,40,41,44,46,51,53,57,58,59,61,65,67,73,75,78,80,81,82,83,85,87,89,90,91,93,106,108,111,112,114,117,118,122,125,129,133,134,135,139,140,141,144,145,146,147,148,149,152,155,156,157,161,162,165,166,167,168,169,170,172,173,174,176,177,179,181,182,185,188,190,191,193,194,200,206,207,214,215,219,223,226,228,232,233,234,235,236,238,240,245,246,247,248,249,251,253,254,256,258,259,261,262,270,271,277,279,280,282,283,285,293,298,310,311,313,318,320,321,328,333,336,337,338,339,340,341,343,346,347,352,353,354,356,357,363,367,369,371,377,381,383,384,388,390,391,393,394,395,396,399,401,403,413,418,419,422,423,427,428,429,432},
{1,9,10,12,13,14,16,18,23,27,28,32,33,36,41,42,44,46,50,52,54,56,58,59,63,64,66,68,70,73,76,80,83,86,88,96,98,99,105,109,110,114,115,116,119,130,132,133,135,137,139,142,152,153,157,159,163,165,166,170,172,174,176,178,180,183,184,185,187,188,190,192,193,197,199,205,206,211,215,216,218,222,223,231,234,237,242,246,247,249,251,252,257,262,265,267,268,271,273,275,277,283,284,285,286,287,289,294,297,298,299,302,303,304,307,308,310,311,312,313,314,315,317,318,319,320,322,323,326,327,331,333,338,341,342,343,351,352,353,357,358,365,367,370,372,373,375,379,381,383,390,394,395,397,399,403,404,405,406,410,411,412,413,414,415,427,432},
{2,3,4,9,11,12,14,16,17,20,23,25,27,28,30,31,33,37,39,41,43,45,49,50,51,53,55,58,60,63,66,70,71,73,75,76,79,87,88,89,92,94,96,100,101,107,110,118,120,126,127,128,129,134,137,139,140,141,144,146,147,150,151,153,154,157,160,163,166,168,169,170,171,185,189,191,193,195,197,201,202,204,207,212,215,219,223,225,227,229,232,235,236,240,242,244,246,249,254,255,262,265,266,270,271,272,273,275,276,277,286,288,290,291,296,297,299,300,303,305,309,312,313,314,320,322,328,329,332,336,338,339,342,344,347,351,352,354,356,357,358,359,362,364,365,366,368,370,375,379,380,381,384,386,388,390,392,396,398,402,404,407,409,414,415,419,422,427,428,430},
{4,5,7,8,9,10,12,16,17,21,25,27,28,29,31,32,42,44,45,46,47,48,49,50,51,52,61,62,64,66,68,69,70,72,73,77,78,82,83,96,100,101,103,105,110,114,115,116,117,118,119,128,131,133,134,137,143,151,152,153,154,157,158,161,162,163,167,168,169,170,176,180,182,185,188,189,190,192,195,196,198,199,203,209,210,211,212,213,214,216,218,221,222,223,227,233,234,239,242,245,246,249,253,256,260,265,267,274,275,279,280,281,283,289,294,295,300,302,304,310,312,315,321,322,324,330,337,343,344,345,347,352,357,358,360,364,367,369,371,377,382,386,387,388,390,391,393,401,405,413,415,420,426,432},
{3,6,9,10,16,17,18,21,24,26,27,32,33,34,36,37,38,40,44,46,47,48,49,50,51,56,59,60,61,62,63,68,72,76,79,80,87,88,89,90,93,94,95,96,97,99,100,103,105,106,108,109,112,117,120,124,126,128,129,135,137,140,145,147,158,159,161,163,168,174,175,177,179,180,181,182,186,190,191,194,195,196,197,199,200,201,205,206,210,212,214,217,218,222,224,227,231,234,235,237,239,240,251,254,255,260,264,265,269,270,275,278,281,283,285,287,295,296,298,303,305,309,313,315,316,317,320,321,322,323,324,327,329,330,332,335,336,339,345,349,350,351,352,355,361,365,366,367,368,370,372,379,383,386,388,389,396,398,401,402,403,405,406,410,412,417,419,420,421,422,424,427},
{1,14,15,18,25,30,32,34,36,43,44,45,46,47,50,53,55,56,59,61,64,67,68,71,76,78,79,81,84,88,89,90,93,96,98,99,102,106,109,112,117,118,119,120,124,127,133,138,144,145,146,148,150,156,157,159,161,163,164,165,170,171,172,178,181,182,185,186,188,192,194,195,196,197,198,200,204,210,212,219,227,233,234,236,243,244,245,246,251,252,254,256,261,264,266,267,274,276,279,282,283,285,286,290,292,293,296,299,301,302,304,306,307,308,311,313,316,322,328,330,331,332,336,342,343,346,350,353,356,360,361,363,365,366,367,368,372,380,381,383,384,385,387,389,391,393,394,398,399,401,403,405,407,408,412,416,417,418,423,426,430,431,432},
{2,6,14,19,20,21,27,28,30,33,34,37,41,42,43,44,45,47,48,49,50,54,55,57,60,62,64,65,66,69,72,80,81,84,88,89,92,94,96,97,100,101,102,103,104,109,111,112,114,117,118,119,132,136,137,138,139,141,144,145,146,151,153,155,156,157,161,163,168,169,170,174,176,179,180,181,182,183,184,185,187,189,195,201,202,204,205,207,210,211,212,214,215,219,220,223,224,230,234,235,236,238,239,240,241,242,244,246,247,248,250,251,259,260,263,268,269,271,273,275,279,281,282,283,286,287,289,291,293,296,299,300,301,305,306,312,314,315,316,318,319,326,329,331,334,341,344,346,348,351,353,354,355,356,358,360,364,366,369,372,373,378,380,383,385,387,388,391,396,397,400,403,405,410,415,422,424,427,428,430,431,432},
{1,2,5,9,11,14,16,18,19,20,21,22,23,39,41,42,52,59,62,67,69,72,79,80,81,87,88,89,90,97,98,99,104,107,108,109,111,115,116,121,123,126,129,130,132,137,138,143,146,147,150,155,157,158,159,160,163,165,171,175,177,181,183,184,186,187,189,192,193,197,200,203,205,207,211,217,219,222,224,229,230,235,237,239,242,243,254,258,261,262,265,266,270,271,272,274,275,277,278,282,287,302,303,304,305,310,312,313,316,323,324,325,326,327,332,333,339,341,342,346,347,348,349,350,354,355,357,359,360,363,366,377,380,381,385,386,387,390,391,392,393,395,401,402,403,404,405,410,411,416,418,419,421,422,424,431},
{1,5,10,11,12,15,16,19,21,23,24,25,27,31,32,33,39,44,46,50,51,53,59,60,66,71,78,79,82,83,85,87,90,91,92,95,96,98,99,101,103,106,109,113,114,120,121,124,127,131,133,134,135,137,138,141,142,149,150,151,156,157,161,165,167,168,171,172,174,175,176,178,181,184,188,194,196,197,200,201,202,204,208,209,210,211,216,218,222,226,228,229,234,235,236,237,238,240,241,243,247,249,251,253,254,255,256,257,267,271,274,275,276,277,279,282,286,287,288,290,294,297,298,299,300,301,302,304,305,306,308,314,316,322,325,327,331,333,336,337,339,341,342,347,349,350,354,357,362,363,364,365,374,375,376,381,389,391,396,397,399,400,402,405,407,408,413,414,415,417,419,423,425,426,427,429,430,431},
{1,2,4,6,8,9,12,13,16,17,19,20,21,24,29,33,35,38,40,43,45,46,48,50,52,54,56,57,61,62,63,64,65,66,69,70,74,83,91,94,95,97,103,109,111,114,115,118,119,120,122,129,130,132,135,139,141,142,143,144,146,149,152,156,159,166,169,171,174,176,178,179,183,185,187,190,191,196,197,198,199,200,205,207,211,215,218,224,228,229,234,241,245,248,249,250,254,255,259,260,261,262,269,271,272,273,275,276,277,278,279,281,284,286,288,291,293,300,301,302,303,304,310,312,313,317,323,325,326,337,339,340,343,344,346,350,351,352,353,354,360,363,371,373,374,377,381,383,386,389,392,398,399,401,402,403,404,405,407,414,418,422,423,432,433,434,436,437,438,439,440,441,442,444,446,447,449,451},
{2,3,4,6,8,9,13,14,15,16,17,18,20,26,28,30,34,35,36,39,41,42,45,47,48,49,53,55,56,58,59,60,65,66,67,70,74,75,78,86,87,89,91,92,95,96,100,101,102,105,106,107,109,111,112,115,120,122,123,124,125,127,131,132,138,140,141,142,145,146,147,152,158,166,174,183,184,194,196,198,200,201,209,211,212,216,218,221,223,225,227,229,231,232,234,237,238,239,240,241,242,243,244,245,246,256,257,258,259,260,262,263,264,268,271,273,275,282,284,285,286,288,297,299,301,303,305,307,309,310,311,314,315,316,319,321,323,324,327,331,336,337,343,344,346,348,349,350,354,360,364,368,372,373,375,376,381,382,383,386,390,391,396,405,409,411,413,417,418,419,421,423,424,425,426,427,429,432,437,438,439,441,446,447,450},
{1,4,8,15,16,17,18,22,25,27,29,31,34,37,39,44,49,51,53,55,64,65,68,69,70,72,78,83,86,88,90,91,92,93,97,98,101,102,105,106,107,111,113,114,116,119,128,129,130,131,132,134,135,136,139,140,141,143,145,150,151,153,156,158,165,168,171,172,173,174,175,178,179,181,183,186,190,191,192,193,196,197,199,200,203,208,210,214,216,218,224,227,228,229,232,233,236,238,239,244,247,251,254,256,258,261,262,278,279,281,283,284,285,287,289,290,291,293,294,299,300,303,306,308,310,314,318,323,328,331,333,335,338,340,342,346,347,350,353,360,365,367,369,371,376,377,378,379,384,390,394,397,399,400,402,406,407,412,415,416,417,419,424,425,427,429,430,431,433,437,445,447,450,451},
{1,5,6,7,9,13,14,15,17,26,28,33,35,46,48,49,51,53,54,55,56,62,64,67,70,75,78,79,81,85,86,88,92,94,99,101,102,103,105,107,108,109,111,113,115,117,123,124,126,128,129,136,137,140,142,143,145,146,149,150,162,163,170,171,173,175,177,178,179,180,182,188,191,195,197,199,206,209,213,214,218,222,223,224,225,231,232,238,241,242,244,245,246,250,252,254,256,257,261,263,268,272,274,275,277,282,286,289,290,294,297,298,305,308,310,312,313,315,322,333,334,335,336,340,341,343,344,346,352,355,358,362,363,368,370,372,375,376,378,379,382,384,390,391,398,400,401,406,408,409,412,413,418,421,423,424,426,428,430,432,434,443,444,445,446,447},
{6,7,8,9,10,11,13,24,25,28,30,31,33,36,37,39,40,44,45,47,48,49,54,58,60,63,66,67,70,72,73,78,79,81,82,84,86,87,88,89,90,91,93,101,102,103,104,105,106,107,108,110,118,120,121,123,128,134,136,137,138,141,142,144,146,154,155,156,158,159,162,170,171,172,180,182,184,185,186,187,188,192,193,196,198,201,203,205,208,210,211,212,215,216,219,221,222,224,226,228,229,232,235,237,238,240,246,249,251,254,255,256,259,260,266,268,271,272,277,278,283,284,286,292,293,294,295,296,305,307,314,315,316,317,320,321,325,328,330,333,334,339,342,345,346,348,350,354,355,357,358,359,361,363,365,366,367,370,372,378,380,381,383,385,387,389,390,391,393,394,397,398,402,406,410,415,416,422,425,426,427,428,429,431,432,433,434,435,439,441,442,444,445},
{1,9,14,15,16,18,19,21,24,26,32,33,34,36,37,39,42,43,45,46,53,56,62,67,71,72,74,75,79,83,88,90,92,93,95,101,117,121,125,126,127,128,134,138,140,141,142,144,145,150,151,163,165,166,167,169,171,172,173,185,193,202,207,208,210,216,218,220,222,223,225,227,229,231,233,234,235,237,242,246,255,257,260,261,263,267,270,271,278,284,285,289,291,295,296,297,301,302,303,304,305,308,310,314,315,318,320,323,333,334,341,344,346,347,349,350,351,352,356,357,360,364,365,366,367,369,370,372,374,377,378,382,383,387,388,390,391,394,396,399,403,404,406,408,410,412,413,415,418,419,421,424,429,430,431,432,433,435,437,451},
{3,10,12,17,18,19,20,23,24,25,27,31,34,37,39,41,44,45,48,55,56,57,59,60,65,66,67,68,70,72,74,75,76,77,78,80,82,85,89,91,92,96,97,98,102,103,104,107,109,110,114,115,116,117,121,122,124,127,128,129,130,134,138,139,143,144,145,146,154,157,160,162,164,165,167,169,171,172,173,175,176,177,181,184,185,186,190,193,200,205,209,212,213,214,217,221,224,227,229,231,236,238,245,251,253,258,259,260,262,264,266,268,269,271,273,274,277,279,280,283,284,286,287,292,293,297,298,301,303,304,306,308,309,310,318,321,325,329,336,337,340,343,347,349,350,352,354,357,358,361,362,363,364,365,366,369,375,377,379,383,384,389,394,395,396,398,400,402,403,404,405,407,412,414,415,417,419,422,425,431,435,441,443,446,449,450},
{3,4,5,8,14,16,18,19,20,22,23,24,29,32,34,43,44,47,48,49,53,56,61,65,68,71,72,73,74,75,80,81,86,87,92,93,94,95,96,103,106,107,108,110,119,124,129,131,132,133,134,135,139,140,148,152,154,161,164,165,167,171,174,177,178,181,182,183,186,188,192,194,195,196,197,198,199,200,201,203,204,205,210,212,214,218,219,223,226,227,230,233,235,238,239,241,242,247,249,253,264,269,271,272,273,274,275,279,286,288,289,293,295,296,297,307,310,311,321,324,325,326,329,332,333,335,336,337,341,342,350,351,352,353,356,359,361,362,368,374,375,377,380,381,386,389,390,391,394,396,398,399,400,401,411,413,414,415,421,424,427,428,429,430,437,438,441,444,451},
{2,4,5,6,7,13,19,22,23,24,25,29,30,31,32,34,46,49,51,52,53,59,65,67,75,76,78,80,81,83,86,88,90,92,93,100,105,108,109,110,113,115,117,120,124,126,129,130,133,134,139,141,145,151,152,153,157,158,160,162,164,167,171,173,175,179,180,183,185,191,192,193,195,197,203,204,206,207,209,210,213,214,215,219,220,221,222,226,229,230,231,232,235,237,239,240,244,246,249,251,254,258,259,261,264,267,269,271,273,275,277,278,279,280,281,282,288,291,299,300,304,306,311,312,315,316,317,319,322,323,329,338,339,340,348,354,356,362,363,364,365,366,372,373,374,375,376,377,379,383,385,386,387,389,393,399,401,407,408,410,413,416,418,419,420,421,422,423,427,429,430,431,432,436,439,440,441,443,448},
{1,3,7,8,9,13,19,23,24,25,28,31,32,35,38,39,41,42,45,47,49,50,52,53,57,59,61,62,63,64,66,71,72,75,76,78,79,82,83,86,88,89,91,93,95,97,100,101,105,111,112,115,119,120,123,127,133,134,135,139,141,142,143,145,146,149,151,152,154,158,159,162,166,168,169,170,178,184,192,197,200,202,203,205,207,208,209,210,212,215,216,217,219,221,223,224,226,229,233,235,237,238,239,240,241,245,246,247,248,249,250,252,257,258,259,262,263,266,268,269,271,274,276,287,290,294,297,300,303,304,318,320,321,323,324,325,327,328,329,330,333,345,347,348,358,363,365,366,374,375,377,379,380,381,382,384,385,386,388,391,393,394,396,400,401,402,403,406,408,409,410,414,417,418,420,423,424,426,429,436,438,444,446,448,450},
{3,4,5,7,8,10,16,18,21,22,23,24,25,26,28,29,30,33,34,37,38,40,43,59,63,66,67,68,69,70,71,72,73,78,80,81,82,92,95,96,99,103,104,107,109,111,112,113,114,116,119,121,122,123,125,127,130,131,134,137,139,140,142,147,149,151,161,162,166,167,173,175,176,178,180,183,185,189,190,192,193,196,201,203,205,206,208,210,212,213,215,218,221,226,229,231,232,235,236,242,243,244,245,246,248,249,250,252,253,256,257,260,262,264,265,268,270,271,272,274,279,282,288,289,291,292,293,294,296,297,299,303,305,306,308,311,312,316,317,324,325,331,333,335,338,339,341,343,344,346,348,351,355,359,363,369,370,373,378,379,382,383,384,385,388,391,397,398,400,402,405,407,416,420,422,423,425,426,431,432,433,443,445,451},
{3,6,8,13,22,23,26,27,30,32,36,37,48,53,58,60,64,70,71,77,80,82,83,88,89,90,91,93,94,96,99,101,102,105,110,114,118,122,128,129,130,133,137,138,142,143,147,150,155,158,159,160,161,162,164,166,167,169,171,174,175,176,179,183,186,189,202,203,204,205,210,216,221,222,223,225,230,231,232,234,239,243,248,249,251,256,263,265,266,267,268,271,273,276,281,282,286,287,289,290,291,293,294,295,297,299,300,305,306,307,312,314,315,317,318,319,320,321,323,327,330,331,334,336,337,339,340,341,344,347,348,350,355,356,357,360,368,373,378,384,385,387,388,390,394,399,403,404,406,407,408,409,410,412,420,424,425,426,427,430,438,442,445,448,449},
{1,5,6,9,10,11,13,15,18,19,20,21,22,24,30,31,32,33,35,38,39,42,43,44,49,52,58,59,63,64,65,69,71,73,74,76,79,80,81,86,87,97,100,101,104,107,109,110,112,113,119,121,122,124,126,128,131,133,136,137,138,142,143,144,145,154,160,161,164,166,168,170,178,181,182,183,185,186,188,189,190,193,194,195,197,200,201,205,206,209,213,214,215,218,219,221,223,224,227,231,233,234,236,239,241,242,245,246,255,256,258,260,262,263,265,269,272,273,274,279,281,285,286,289,293,294,298,299,303,304,305,306,307,311,312,319,322,335,336,337,338,341,347,349,351,354,362,363,367,370,373,374,376,377,379,382,383,387,389,390,391,395,397,399,400,403,405,406,408,409,410,411,412,413,418,420,430,431,435,437,441,444,445,447,451},
{4,6,10,11,15,17,30,33,35,36,37,39,43,50,51,53,54,56,57,58,63,64,69,71,72,75,76,80,81,83,84,86,87,89,90,96,99,104,106,108,109,115,120,122,123,129,131,132,138,147,156,163,169,170,172,173,175,176,179,182,183,184,185,192,194,195,196,197,198,199,200,204,206,207,211,214,215,216,219,226,227,229,230,231,232,237,238,241,246,247,251,252,254,255,258,259,261,263,264,266,268,270,271,272,276,277,280,284,289,291,299,300,302,307,308,310,311,312,314,317,320,321,323,326,327,328,330,333,335,336,338,343,346,349,354,358,360,364,365,366,368,369,372,373,379,380,383,386,389,392,398,404,409,411,412,415,419,420,421,424,427,431,432,437,441,443},
{1,4,7,9,10,11,12,15,17,22,23,25,26,30,32,33,36,38,39,41,42,45,47,50,53,55,57,59,62,65,69,70,71,73,74,77,82,85,92,93,96,100,101,102,103,104,105,107,109,110,115,116,118,121,126,129,132,133,135,137,143,145,152,153,154,155,156,158,162,164,165,171,172,174,175,176,178,179,184,185,188,190,192,193,194,199,203,208,212,213,217,218,220,222,225,228,229,232,235,238,240,241,242,243,244,248,250,257,258,260,261,263,265,270,272,280,282,284,288,292,294,295,297,302,304,307,312,313,317,320,329,330,331,332,333,339,341,344,348,351,352,354,355,360,361,362,365,367,371,372,374,375,378,382,385,387,388,389,391,396,398,399,400,401,404,407,408,413,415,416,417,418,420,421,422,426,428,431,433,436,438,439,443,447,450},
{4,6,7,10,11,12,13,14,17,18,19,33,34,39,42,43,44,45,51,53,56,58,60,61,62,69,73,74,75,78,81,82,83,86,89,90,93,98,103,107,111,114,115,116,117,118,121,122,123,125,128,136,137,138,141,142,146,148,149,156,157,158,161,163,164,169,171,172,175,176,177,180,181,182,183,184,186,189,190,193,197,198,200,201,204,205,207,208,211,212,215,216,221,225,229,230,231,233,238,243,252,256,257,261,262,264,265,266,268,271,276,278,279,284,287,288,292,296,299,302,306,307,309,311,312,313,326,328,330,335,336,339,340,341,342,349,350,353,355,358,361,364,372,375,377,378,380,382,385,388,389,394,396,401,402,403,405,406,407,409,411,412,413,416,417,420,421,423,425,426,427,430,431,435,437,439,441,442,443,448,450},
{2,6,8,9,10,12,13,20,22,23,26,27,30,33,41,42,43,44,46,49,53,58,60,61,63,65,66,71,74,79,81,82,83,85,87,88,93,95,96,97,98,99,100,101,102,106,108,110,112,113,114,117,118,119,123,124,130,131,132,140,141,142,145,150,151,153,154,155,163,169,170,172,188,190,191,192,197,200,201,202,203,208,209,210,211,213,214,215,218,219,221,223,227,228,229,231,234,236,242,244,246,247,249,252,254,256,264,267,268,270,271,275,277,281,282,286,290,292,293,295,296,298,299,303,305,307,308,310,314,316,318,321,322,324,327,333,335,338,339,344,345,346,347,353,363,366,368,369,373,376,378,380,382,388,395,399,401,403,404,408,418,421,422,423,426,428,431,433,436,437,438,439,440,443,445,446,447,448,449,450,451},
{2,3,4,10,11,14,15,16,17,19,20,21,24,28,30,31,37,38,40,41,43,44,45,49,52,54,61,62,66,68,69,71,72,73,74,78,80,82,83,84,85,86,89,90,91,92,93,94,99,100,103,105,110,118,119,120,125,128,129,131,133,135,137,141,142,143,145,147,148,151,152,156,160,166,167,171,172,175,179,180,183,184,187,189,190,201,204,207,208,209,210,211,212,215,216,217,221,230,231,232,234,238,239,244,251,258,259,260,267,268,270,272,273,277,278,279,280,285,286,288,289,290,291,293,294,296,298,302,303,304,305,306,307,308,310,313,315,316,317,318,327,334,335,338,341,347,350,352,353,356,359,362,366,368,371,373,378,379,381,382,384,385,386,388,390,400,401,411,413,414,416,417,418,419,422,426,427,430,431,432,435,436,437,438,440,441,443,449,451},
{2,6,12,14,15,17,18,20,23,24,26,33,34,36,37,38,40,42,44,47,48,49,50,52,54,59,63,66,67,68,71,72,73,74,75,76,79,89,95,98,100,101,103,104,105,112,118,120,121,125,126,127,130,134,135,137,142,144,145,146,148,149,151,154,156,158,159,165,166,168,169,170,171,172,173,174,177,178,182,184,187,188,189,190,191,192,194,195,199,200,203,204,205,210,212,213,215,217,219,220,222,223,224,225,226,229,230,232,234,237,241,242,243,244,245,246,248,250,253,265,266,267,269,270,273,274,275,280,283,284,285,286,290,291,294,305,306,308,309,312,313,315,318,321,322,323,328,331,334,337,338,339,341,342,343,345,350,351,353,354,359,366,368,369,370,374,380,382,383,384,385,388,389,390,391,392,393,395,398,406,408,410,412,414,417,418,421,424,427,429,430,433,437,438,439,440,442,446,447,450},
{1,3,4,6,7,10,14,15,18,21,23,24,26,29,31,33,40,43,44,51,52,60,61,63,65,67,74,75,76,80,83,85,86,88,89,91,92,93,95,100,101,102,103,104,106,107,108,110,111,116,120,125,126,127,130,133,135,137,138,141,143,146,147,149,156,157,163,164,165,167,172,174,176,177,179,180,181,189,193,198,201,207,211,212,216,224,227,228,230,232,234,236,237,238,240,246,249,253,254,256,257,258,259,261,262,263,268,269,271,272,274,276,278,284,286,288,289,293,294,295,298,299,302,306,312,313,314,315,316,318,322,323,325,326,327,330,332,333,335,337,338,339,343,345,347,349,355,356,358,359,365,366,368,370,373,375,376,378,379,380,381,391,395,396,398,401,405,408,409,410,411,415,420,422,423,426,427,428,429,430,435,438,439,441,446,449,450,451},
{3,8,10,11,14,18,19,22,24,28,29,30,32,36,43,48,54,55,58,59,60,62,63,64,67,69,72,74,75,76,77,80,81,82,83,84,85,88,89,92,94,95,102,106,108,110,111,112,113,115,117,118,120,123,124,126,128,131,132,142,145,151,152,159,160,162,163,167,169,170,172,178,179,181,185,189,193,194,195,197,201,203,204,205,206,207,209,211,213,219,226,229,235,237,239,242,243,245,247,248,250,252,254,255,256,257,259,261,267,269,271,273,278,279,280,282,284,285,290,295,296,297,299,303,306,307,308,310,315,320,322,323,327,329,330,331,339,340,341,344,346,350,351,354,356,358,359,361,363,365,367,369,374,376,381,382,383,384,386,388,390,391,392,394,396,400,401,404,407,408,409,410,411,416,419,422,425,428,429,434,438,439,444,446,449},
{4,8,17,20,23,25,29,30,34,36,37,39,43,44,47,48,49,51,53,55,57,63,76,84,85,90,92,95,96,103,104,107,108,109,111,115,116,117,118,120,122,126,130,132,134,136,140,141,143,145,150,151,156,157,158,159,160,165,169,170,172,174,176,177,180,183,185,187,192,198,199,204,206,213,214,217,218,227,235,237,239,242,246,248,250,252,254,257,263,264,265,266,268,275,276,278,281,283,288,289,290,294,299,300,302,304,307,312,313,314,317,318,319,320,321,323,324,326,332,333,339,341,344,346,349,351,352,356,360,364,365,366,370,372,375,377,378,380,381,382,386,387,395,396,398,400,401,404,406,409,410,415,417,421,423,430,433,434,435,436,439,440,441,444,446,447,449,450,453,456,457,458,459,460,461,464,465,466,469,470},
{2,3,5,6,7,11,12,13,16,18,20,22,23,24,26,33,35,36,38,40,43,46,47,50,53,54,56,60,62,63,66,70,75,76,79,80,81,82,87,88,89,92,93,98,99,101,102,103,104,105,107,111,112,117,120,123,124,125,127,128,130,131,133,137,139,144,147,148,150,151,156,157,158,159,161,162,163,165,166,169,172,173,174,177,179,181,182,185,188,189,190,194,196,200,201,202,203,205,208,209,210,212,214,221,227,229,231,233,236,237,238,239,244,247,248,251,252,253,254,256,257,262,263,264,268,272,278,282,284,285,286,287,289,293,296,300,302,303,304,305,306,307,308,309,312,313,314,315,317,318,320,327,328,330,335,338,342,343,344,349,351,354,355,357,359,360,362,366,367,368,370,373,376,377,382,383,387,388,389,391,392,393,396,397,398,400,401,408,410,413,415,418,419,421,422,424,426,427,428,431,433,437,442,444,445,447,457,458,462,466,468,470},
{1,3,7,8,10,11,12,15,19,27,29,30,31,32,33,35,36,37,41,43,44,46,48,51,53,54,55,58,60,61,62,63,70,73,76,78,79,80,81,82,87,89,91,97,98,100,101,104,108,109,111,114,115,117,119,126,127,128,130,131,132,134,138,140,142,144,145,147,151,152,153,155,158,160,163,165,167,168,171,172,175,177,178,180,181,183,186,187,188,189,194,200,201,203,204,205,209,211,212,214,220,221,222,225,229,236,239,242,248,249,250,252,253,254,257,260,262,267,268,274,277,278,280,283,288,292,294,295,296,301,303,305,306,309,310,313,315,317,319,326,328,329,330,333,335,338,342,344,347,348,350,351,357,361,367,371,374,376,377,378,387,394,396,400,403,413,414,421,423,427,429,435,436,440,441,443,446,448,449,450,452,456,461,463,466,467,470,471,472},
{1,2,4,5,9,16,17,19,20,21,23,26,34,36,37,41,44,46,47,49,50,55,59,60,62,64,65,66,67,69,73,74,75,81,83,84,85,86,87,89,90,94,99,101,102,103,106,111,112,115,116,118,119,120,123,124,125,126,127,128,129,131,135,141,142,145,146,147,150,152,154,156,157,158,163,169,170,173,176,177,179,181,182,187,188,189,192,195,199,200,204,205,206,209,210,211,212,214,220,221,222,223,226,229,230,232,234,235,236,238,240,248,249,252,253,263,266,268,270,272,273,275,276,278,279,281,287,292,294,295,296,300,303,304,306,311,315,318,320,321,323,329,330,331,337,339,341,343,345,353,357,358,359,362,363,366,367,368,369,375,376,377,378,379,382,386,389,390,391,392,394,395,398,404,405,406,409,410,412,414,415,418,419,420,424,426,430,432,433,434,436,438,439,440,441,445,447,449,454,463,464,466,467,468,469,470,471},
{4,7,8,10,12,19,20,22,24,30,34,35,36,38,42,44,45,46,47,48,50,53,54,55,59,62,65,68,76,82,83,84,88,90,91,92,96,99,101,105,107,108,112,113,116,117,118,119,124,125,127,128,130,132,138,141,142,144,145,149,151,152,153,159,163,164,165,166,169,173,175,176,178,180,181,184,185,186,188,198,199,200,206,208,212,213,218,220,221,229,231,232,235,236,238,241,243,244,252,253,262,268,269,271,272,273,277,278,279,283,284,287,290,294,296,297,298,299,300,301,302,304,307,310,313,314,319,321,322,325,326,327,329,331,333,341,344,345,348,349,350,353,355,356,360,362,363,364,366,369,374,381,383,384,385,386,388,389,392,393,395,398,399,400,408,410,411,414,418,420,421,423,424,425,432,437,438,447,448,453,459,460,462,465,469,470,471},
{1,4,6,7,10,13,14,17,18,21,23,24,25,28,30,31,33,34,35,39,41,44,47,49,50,54,55,58,60,69,70,71,74,75,77,79,81,82,83,84,94,95,96,97,99,100,106,109,113,117,118,121,124,125,126,127,128,132,133,136,141,142,145,146,148,149,150,152,154,156,159,160,165,166,167,171,173,176,177,179,182,183,185,186,191,192,194,196,197,198,199,206,208,213,215,216,217,222,223,224,227,229,234,235,241,243,245,248,249,251,252,254,261,264,265,267,272,274,277,284,285,287,288,290,293,300,306,310,312,313,319,320,321,323,325,326,328,329,330,331,332,336,344,345,346,349,352,353,356,358,359,360,361,362,365,372,378,380,384,387,388,395,396,397,402,403,412,415,416,417,419,421,425,426,429,430,432,434,435,437,442,448,451,453,454,455,456,457,462,463,467,470,472},
{1,3,5,6,8,9,10,12,13,14,15,16,19,20,21,23,24,25,27,28,29,30,31,33,36,39,41,45,48,49,51,52,55,60,61,64,65,67,68,70,75,76,77,79,80,89,90,91,93,96,100,101,102,108,115,116,118,119,121,124,125,130,133,135,136,139,140,141,144,145,147,148,149,155,159,161,164,165,167,168,170,174,177,178,182,183,184,187,188,190,193,194,196,198,201,202,203,207,212,213,216,217,220,221,222,223,231,235,240,242,244,245,246,247,248,249,251,254,255,257,260,261,262,268,269,270,272,276,278,279,282,284,289,290,293,294,301,303,306,309,310,312,315,319,322,323,325,328,329,335,336,338,339,343,347,348,350,352,356,358,364,366,368,369,374,377,378,379,382,383,387,390,391,393,396,398,399,407,408,418,421,422,423,427,428,429,430,431,435,438,439,440,445,448,451,452,455,457,459,461,462,468,472},
{1,4,5,7,8,17,18,19,20,21,24,26,27,28,32,33,37,38,39,40,41,44,46,49,52,55,56,57,58,63,68,71,72,74,77,78,81,83,84,86,93,95,99,101,102,105,106,107,108,109,110,111,112,113,116,117,119,120,123,124,125,126,127,128,130,131,132,134,135,137,139,140,142,145,147,152,154,155,156,157,159,161,166,168,169,170,172,173,174,175,176,181,182,188,189,193,195,197,198,205,206,207,208,209,210,212,213,219,220,222,223,227,229,231,232,237,240,244,245,251,252,253,254,258,260,264,266,267,273,274,278,286,291,294,295,301,302,303,304,305,307,311,315,318,321,322,325,330,331,332,333,335,336,337,338,340,342,349,350,351,352,353,355,358,359,360,362,365,366,369,370,372,383,386,387,388,391,393,395,396,398,404,408,409,410,411,418,419,423,424,425,426,427,436,437,438,439,440,443,446,448,450,452,453,455,459,460,464,465,466,468,469,470},
{2,5,6,7,10,12,13,15,17,19,21,23,25,30,31,36,37,38,39,43,47,48,52,57,59,60,61,64,65,68,69,71,73,77,78,79,80,81,85,87,92,93,95,97,99,103,104,113,115,119,122,123,124,127,128,131,133,134,136,139,141,143,146,148,151,152,153,155,157,159,160,164,165,167,169,170,174,178,179,180,181,182,184,185,188,189,190,191,193,195,196,199,202,213,216,218,220,221,225,228,230,232,233,234,238,239,241,242,252,254,257,261,262,263,264,265,270,272,274,277,278,280,287,291,293,294,295,300,303,305,311,318,319,323,325,326,327,328,329,330,338,339,342,345,347,350,352,353,355,356,357,361,364,365,369,373,380,381,382,388,392,394,396,402,404,409,414,415,416,421,422,423,424,425,427,432,434,436,440,443,447,448,449,451,453,462,463,465,466,467,470},
{5,6,7,9,11,12,14,18,19,20,25,34,37,38,46,47,49,51,52,55,57,59,61,63,65,68,69,70,71,79,80,82,84,89,90,98,99,100,102,103,105,108,113,115,117,119,120,124,128,130,131,133,139,142,143,149,150,153,154,155,158,162,164,165,171,174,176,177,179,181,183,186,190,191,192,195,196,200,208,209,210,213,216,221,225,226,227,228,229,230,237,238,243,244,247,248,249,251,252,255,256,258,259,260,261,268,269,273,276,279,281,283,285,288,289,291,293,295,297,298,302,303,306,311,312,313,314,315,317,319,321,322,325,326,328,334,336,343,344,348,352,355,356,359,360,362,363,368,369,371,373,377,380,381,383,385,387,391,396,403,404,405,406,409,410,411,418,419,421,422,423,426,428,429,430,432,433,440,443,445,450,451,452,455,460,461,465,466,468,472},
{2,5,6,11,12,13,18,20,21,22,25,27,35,38,39,40,42,44,51,56,58,63,69,72,74,77,78,79,81,83,86,90,92,95,96,101,103,104,107,109,111,118,119,120,122,123,124,125,128,129,130,131,134,135,136,138,139,150,153,156,163,166,167,170,176,179,180,181,186,191,194,196,197,198,199,200,201,204,206,211,212,218,219,220,223,224,225,227,229,230,233,235,238,241,242,244,246,249,251,253,256,259,261,262,264,267,270,271,273,276,277,284,289,292,296,298,299,300,303,305,306,307,310,311,313,314,319,326,327,328,330,331,334,338,339,340,342,343,344,345,351,352,353,355,357,359,361,363,366,374,375,379,383,384,386,391,400,401,405,412,413,415,416,418,419,421,423,425,426,427,429,430,431,438,439,440,442,444,446,449,450,452,453,457,461,462,464,465,466,468,469,471},
{2,4,6,7,8,9,15,17,20,27,29,30,31,35,39,44,45,46,49,50,60,62,64,69,73,79,84,85,86,90,91,93,94,98,105,108,111,112,115,116,118,119,123,125,126,131,133,134,135,137,141,149,152,153,154,155,161,163,164,169,171,173,180,183,185,188,194,195,204,205,210,213,215,216,217,218,221,222,224,225,227,228,232,237,239,244,245,247,248,250,252,253,258,259,265,271,273,276,277,278,279,281,287,292,294,297,299,301,303,304,307,308,317,320,321,322,325,326,329,331,332,334,338,340,344,350,352,353,356,357,358,361,362,363,367,368,369,372,382,385,387,391,393,397,398,400,404,409,410,411,412,416,418,419,426,430,431,434,435,436,442,445,455,456,457,459,462,464,466,469},
{1,3,5,6,7,8,9,11,14,16,18,20,22,23,25,28,30,31,32,33,34,35,36,37,39,40,48,50,58,59,61,63,67,72,73,74,75,77,82,86,87,89,90,91,95,97,98,101,102,105,108,109,116,117,119,120,123,125,127,129,130,131,132,133,135,137,142,149,153,155,157,158,159,161,162,167,174,178,179,180,185,186,189,190,191,197,198,200,201,204,205,208,210,211,213,214,215,216,218,220,224,225,228,230,233,237,239,245,247,249,251,252,253,254,255,256,257,261,262,270,272,274,277,279,280,289,290,296,297,302,304,305,306,310,311,312,313,316,317,318,319,322,323,327,328,329,330,331,334,337,338,339,342,343,347,348,356,360,364,365,368,375,376,377,382,383,389,391,396,398,404,405,407,411,412,413,416,417,420,422,423,428,430,439,440,443,445,449,453,454,455,456,461,465,466,468,469,470,471,472},
{1,7,10,11,12,13,18,19,22,24,25,27,29,34,38,39,40,42,46,47,52,55,62,63,65,66,69,71,74,75,76,80,87,89,90,93,95,96,97,99,101,102,103,104,109,112,117,121,122,127,133,134,138,139,141,142,145,153,156,157,159,161,162,166,170,173,175,176,177,178,181,185,187,191,192,194,195,196,197,199,201,204,205,207,208,216,217,221,225,230,233,234,240,245,246,248,249,252,254,255,256,259,261,263,264,267,271,272,274,275,278,279,280,282,284,288,293,295,297,298,300,305,308,313,314,320,325,328,329,334,336,337,340,342,344,345,346,354,356,358,360,364,365,367,368,370,372,374,375,377,379,380,381,382,383,387,388,389,394,397,399,406,409,411,414,420,424,425,426,428,429,430,434,435,437,440,444,447,449,450,455,456,463,465,468,469,472},
{3,8,13,16,17,18,20,24,26,28,32,35,36,37,38,44,45,54,72,73,74,75,76,79,80,81,84,85,89,90,92,94,95,96,98,102,105,107,109,111,115,122,123,124,126,129,134,136,139,141,142,146,147,148,154,155,156,159,161,165,166,170,171,173,174,175,176,177,179,182,186,188,191,194,196,199,200,203,204,206,213,215,222,224,227,231,232,233,234,242,249,252,254,257,258,261,264,269,272,273,274,276,277,282,289,290,291,292,295,296,301,303,304,308,309,314,315,319,326,327,328,331,333,336,337,340,341,347,349,350,351,353,356,357,358,359,362,364,365,366,368,369,373,374,375,377,379,382,383,385,389,391,392,396,397,399,402,405,407,408,410,413,416,418,422,424,427,428,430,432,438,439,441,442,444,448,450,451,452,453,454,457,459,462,465,466,468,469,470,472,473,479,480,483,484,485},
{4,8,9,11,15,16,18,21,22,28,31,32,34,36,39,40,41,42,45,46,50,52,53,55,57,64,65,67,68,72,73,74,75,76,77,78,80,83,84,85,87,89,93,95,96,99,104,105,109,110,113,119,123,124,126,128,129,130,131,132,133,135,139,140,142,148,149,150,154,160,166,167,168,169,171,172,174,176,177,179,181,187,188,189,192,197,199,201,204,206,208,210,212,214,215,216,217,218,220,221,224,226,228,229,231,234,235,237,239,240,241,243,244,250,252,259,261,263,264,268,269,270,271,274,275,280,283,288,290,291,294,295,296,298,299,309,311,312,313,314,322,325,327,331,332,333,339,343,347,348,350,355,356,357,358,364,367,369,374,378,379,386,387,392,393,396,398,399,401,405,406,407,410,412,413,419,421,424,425,433,434,435,437,441,445,448,449,451,455,458,459,460,465,467,472,475,476,477,478,480,485},
{2,3,5,6,9,19,20,24,25,26,28,29,31,34,36,40,44,45,46,52,53,58,60,61,65,67,72,73,74,77,80,81,84,85,86,87,88,89,90,91,94,99,103,107,109,111,114,116,118,119,122,125,129,130,132,136,138,139,140,144,145,146,148,149,153,157,159,160,162,165,167,169,170,174,180,183,184,185,190,199,200,208,209,210,213,214,215,219,222,226,227,231,234,237,238,240,241,246,247,251,253,256,260,261,262,263,265,266,267,270,272,275,276,280,281,282,286,290,291,293,297,300,302,303,309,310,311,313,318,321,323,326,327,331,333,334,337,338,339,345,349,351,353,356,359,361,362,367,370,375,379,381,382,383,390,391,396,397,399,400,403,409,410,413,419,421,424,429,433,435,438,439,440,445,446,454,456,458,460,461,463,465,468,469,470,471,477,478,479,482,486},
{1,3,5,10,12,16,17,18,19,20,21,22,26,28,30,31,33,35,37,39,41,49,51,54,56,63,64,66,68,69,70,72,73,77,83,84,88,89,93,94,96,104,108,109,110,111,112,115,116,123,124,125,129,132,133,134,137,138,140,142,150,151,154,158,161,162,164,166,167,171,173,183,186,188,193,196,197,201,202,203,205,212,220,223,228,229,233,235,236,239,242,243,245,247,249,250,251,254,256,261,263,270,273,275,276,278,285,288,292,294,295,296,301,306,307,309,313,314,317,318,320,321,322,326,328,330,333,336,337,338,342,343,352,354,356,358,359,362,364,367,369,370,371,372,373,375,383,384,385,389,390,394,396,397,401,402,403,406,407,408,411,414,415,419,420,423,425,426,428,430,434,444,446,449,451,452,453,455,459,464,469,471,473,474,477,479,480,481,483,484,485,486},
{2,3,4,9,13,14,17,19,20,22,23,29,32,33,36,37,41,45,51,56,58,62,66,68,69,70,74,78,79,80,83,86,88,89,95,99,101,105,106,108,111,116,119,123,127,128,130,133,135,137,139,141,144,146,153,158,159,160,162,170,175,176,177,179,180,181,184,185,186,187,191,193,194,195,196,198,208,211,212,213,216,218,223,224,230,232,234,235,239,240,244,248,249,253,257,258,260,263,265,268,273,277,279,280,282,283,284,286,291,294,295,296,297,301,309,312,313,315,317,320,321,322,324,325,327,329,330,331,334,335,339,342,345,348,350,351,353,357,360,361,362,363,365,366,367,372,374,375,377,382,385,386,387,389,391,393,394,395,398,400,402,404,411,413,414,415,419,420,424,431,433,436,439,443,444,445,449,454,456,458,459,460,462,466,468,470,472,473,476,477,479,480,483},
{6,7,11,12,14,17,19,20,23,25,27,30,31,33,34,36,39,40,45,48,49,50,52,55,57,60,62,63,64,66,67,70,72,73,79,82,83,85,88,89,90,91,92,94,96,102,104,106,108,109,111,114,116,117,120,122,123,125,128,132,133,134,137,139,141,142,143,144,145,149,153,155,158,160,162,163,164,167,174,175,180,181,183,184,185,187,190,191,192,194,197,200,201,202,204,205,209,210,211,213,214,218,219,220,223,225,226,228,232,238,243,245,246,248,249,251,253,256,258,261,269,272,275,286,288,290,292,295,296,302,304,308,311,313,314,316,320,321,322,324,328,331,332,341,343,345,347,355,356,357,359,367,368,373,378,379,380,381,390,391,392,396,398,399,400,401,404,405,409,410,411,412,415,424,425,426,428,431,437,438,440,443,445,446,449,451,452,454,455,456,459,460,462,464,468,469,471,474,482,484},
{4,5,7,11,14,18,20,22,24,25,34,35,37,38,41,42,43,44,45,48,49,55,56,57,65,67,68,70,71,72,73,74,76,77,78,79,82,85,89,90,91,92,93,94,98,99,100,104,107,109,110,111,113,114,117,120,123,126,127,134,136,138,143,147,154,155,160,163,168,173,174,177,179,181,182,183,185,186,187,188,192,193,195,196,201,202,203,204,206,207,208,209,213,214,216,217,222,227,231,248,255,256,259,260,262,263,265,266,268,269,270,271,272,277,278,279,281,282,283,287,288,289,290,292,293,294,295,296,297,298,299,303,306,308,309,311,313,314,316,319,320,322,327,335,340,344,347,351,352,357,358,361,363,365,368,369,370,372,374,375,376,377,378,379,398,399,404,411,415,416,419,422,425,427,428,430,432,438,440,441,443,444,448,449,452,453,456,458,459,462,463,465,466,468,471,475,477,478,480,482,483,486},
{9,12,16,20,22,26,27,28,29,30,31,32,37,38,39,48,57,58,59,61,64,65,66,68,79,80,81,84,85,86,89,91,92,93,96,103,104,105,106,109,112,113,123,124,125,126,129,132,133,135,136,137,141,142,146,150,153,156,157,161,164,171,173,174,176,177,178,179,181,187,188,190,192,195,198,202,204,205,207,208,209,212,214,215,217,226,229,233,237,238,243,245,250,254,256,258,259,269,275,277,279,281,282,283,286,287,291,292,297,301,308,309,310,315,316,321,322,323,324,325,330,332,336,337,341,342,344,345,348,349,350,351,353,356,357,358,360,361,362,365,367,373,374,375,378,382,383,385,386,387,392,393,399,401,403,404,407,408,409,410,414,417,418,420,423,426,427,429,433,434,435,436,442,447,451,453,454,455,456,457,460,462,465,470,471,474,475,477,478,482},
{2,5,7,8,9,10,11,12,13,17,18,20,21,25,26,28,34,39,40,43,45,47,48,54,56,59,60,61,62,64,65,67,72,74,75,78,85,90,91,92,94,95,96,100,102,107,110,111,114,121,129,132,133,134,138,142,143,146,149,150,151,152,153,158,160,162,163,165,166,168,170,178,184,185,190,195,200,201,202,203,204,206,207,209,212,214,216,217,218,223,228,232,233,234,240,241,242,245,250,256,261,262,264,265,268,269,273,275,283,284,285,287,294,295,299,300,302,303,304,305,306,307,308,310,314,317,322,324,328,329,331,332,335,336,342,344,345,348,351,352,353,361,363,364,366,368,369,371,373,375,376,379,382,383,385,386,388,390,397,398,399,400,406,408,409,410,413,414,418,422,424,426,430,433,435,438,444,447,448,449,450,452,454,456,457,460,461,462,463,464,465,470,471,474,475,485,486},
{1,2,5,6,8,10,12,14,15,22,24,26,28,30,33,34,37,38,41,45,47,49,50,54,55,56,57,59,61,69,72,74,77,78,79,83,84,89,91,93,95,97,102,103,105,107,108,109,112,114,120,121,124,130,131,133,135,141,143,145,147,149,151,153,155,159,166,168,170,176,182,183,188,190,194,200,210,211,214,217,223,224,227,232,235,241,243,246,248,254,255,260,262,263,267,270,271,272,278,279,283,284,296,297,298,299,301,302,303,304,307,308,315,316,321,322,324,328,332,333,336,341,342,347,350,352,356,358,359,360,361,364,367,369,371,373,376,377,378,381,391,392,393,398,402,405,410,413,415,420,421,426,427,432,433,434,435,438,439,441,443,444,445,447,448,452,453,455,456,465,466,467,468,472,475,477,478,480,481,483,484,485,486},
{1,4,6,10,13,16,18,19,22,29,35,36,37,43,47,49,50,52,56,57,63,66,69,71,72,73,74,75,76,78,85,89,92,94,95,99,104,106,107,108,111,118,119,122,123,128,132,134,135,137,138,140,141,142,149,157,161,165,166,168,169,174,175,176,178,179,182,183,188,194,195,198,200,203,204,206,207,211,212,214,217,219,220,221,223,224,225,227,230,232,233,234,236,237,238,240,241,242,243,246,251,253,256,258,259,260,261,262,268,271,272,273,274,277,284,285,287,291,293,294,298,299,300,301,304,305,306,309,310,311,312,313,314,316,317,323,324,328,330,335,336,338,340,343,348,349,350,353,355,356,359,360,372,373,375,376,378,380,382,387,388,397,398,401,405,411,414,415,420,423,425,430,435,437,446,447,449,450,453,457,458,459,467,469,474,475,478,481,483,485,486},
{2,4,7,8,9,11,12,14,16,17,19,25,27,28,30,39,43,48,49,50,51,56,57,62,65,67,70,71,73,75,77,82,83,85,88,89,90,97,102,103,104,111,118,121,124,127,134,135,141,143,148,150,152,153,164,171,173,176,177,181,182,184,187,189,191,194,197,199,200,202,204,207,210,214,219,220,221,222,223,227,228,229,231,232,238,242,243,245,251,252,253,257,262,268,270,271,274,275,281,282,283,287,288,291,292,295,298,299,302,305,306,309,310,312,315,316,317,320,322,323,325,330,334,335,336,345,351,353,355,357,358,362,363,364,365,370,371,373,374,375,379,380,382,384,385,387,388,390,395,396,399,401,405,407,414,420,425,427,428,430,431,433,438,439,440,443,444,445,449,451,452,453,455,457,459,460,461,462,464,466,475,478,481,485},
{5,6,9,10,11,14,16,21,23,27,28,33,34,37,40,45,49,52,56,58,61,64,69,72,78,81,82,85,87,88,94,96,104,105,106,107,108,109,112,116,117,118,120,121,123,125,126,127,129,130,131,133,134,136,138,141,150,151,153,158,160,161,162,165,167,169,170,172,175,176,183,187,190,191,197,201,205,207,208,209,214,215,218,222,224,227,231,234,236,239,244,249,251,258,259,263,274,275,276,277,281,282,286,287,290,292,295,297,300,301,302,304,308,309,314,320,321,323,325,328,331,338,339,342,343,344,346,352,353,354,357,363,366,368,373,374,375,378,379,380,386,389,390,392,393,394,397,398,400,405,407,409,411,412,415,419,420,425,427,429,430,433,436,437,438,439,441,442,448,452,453,455,456,458,460,464,465,466,467,468,473,474,475,480},
{5,7,10,14,18,19,20,21,22,24,30,34,43,44,45,53,54,60,61,65,66,67,68,69,70,72,74,78,79,84,85,86,87,92,96,97,98,100,102,103,106,111,112,113,117,118,122,124,127,128,129,131,132,135,139,143,145,146,148,149,153,155,160,161,163,164,166,167,168,169,170,174,176,179,180,181,185,189,192,194,195,197,198,201,204,205,209,211,213,214,215,216,225,226,227,228,229,231,236,237,242,243,244,245,251,252,253,255,262,264,265,267,270,274,275,276,282,284,286,289,291,298,301,303,306,308,309,310,311,312,315,318,323,328,332,333,334,337,341,342,346,347,348,349,350,351,354,356,358,360,362,363,366,368,369,370,373,374,375,379,380,381,382,386,388,390,392,393,394,395,397,400,401,403,404,409,411,412,415,416,417,420,422,424,429,430,431,432,433,435,436,437,439,441,442,444,446,447,448,449,450,451,453,455,458,461,465,468,474,477,480,481}];
