nBusiness = 258;
nMeetings = 507;
nTables = 29;
nTotalSlots = 23;
nMorningSlots = 13;

requested = [|31, 111,3,
|140, 199,3,
|155, 164,1,
|58, 91,3,
|133, 178,1,
|69, 243,3,
|176, 18,1,
|214, 117,3,
|246, 8,1,
|205, 208,3,
|52, 129,3,
|201, 197,3,
|191, 118,3,
|153, 251,3,
|184, 12,3,
|32, 28,3,
|56, 92,3,
|247, 95,3,
|26, 86,1,
|9, 6,3,
|239, 70,3,
|192, 10,1,
|240, 156,1,
|163, 223,3,
|246, 156,1,
|163, 205,1,
|197, 26,1,
|111, 28,3,
|240, 86,3,
|164, 251,3,
|10, 70,3,
|12, 69,3,
|199, 208,3,
|52, 247,1,
|214, 184,3,
|176, 58,1,
|92, 32,3,
|91, 129,3,
|133, 31,3,
|140, 191,1,
|153, 8,1,
|56, 9,3,
|201, 117,3,
|95, 6,1,
|243, 18,1,
|178, 192,3,
|239, 155,1,
|118, 223,3,
|23, 214,1,
|205, 54,3,
|12, 197,1,
|184, 157,3,
|226, 70,3,
|201, 91,3,
|31, 251,3,
|117, 247,3,
|111, 61,3,
|52, 8,3,
|192, 58,3,
|246, 243,1,
|69, 6,3,
|239, 7,3,
|118, 5,1,
|92, 156,1,
|191, 17,3,
|208, 163,3,
|18, 86,3,
|240, 133,1,
|199, 26,1,
|9, 153,3,
|129, 176,1,
|52, 156,3,
|182, 69,1,
|129, 239,3,
|91, 41,3,
|209, 17,3,
|199, 86,3,
|5, 6,3,
|221, 197,3,
|246, 117,1,
|7, 258,3,
|89, 12,3,
|23, 211,3,
|201, 192,3,
|136, 240,3,
|22, 96,1,
|184, 45,3,
|208, 118,3,
|157, 153,3,
|61, 226,1,
|18, 214,1,
|42, 54,3,
|27, 92,1,
|58, 31,3,
|201, 61,1,
|7, 192,3,
|211, 45,3,
|96, 41,3,
|27, 197,3,
|208, 226,3,
|22, 139,1,
|228, 168,3,
|209, 23,3,
|11, 118,3,
|49, 6,1,
|5, 179,3,
|219, 115,3,
|221, 59,1,
|86, 35,3,
|157, 42,1,
|258, 214,3,
|58, 218,3,
|136, 234,1,
|246, 129,3,
|92, 182,1,
|156, 206,3,
|89, 91,3,
|199, 88,3,
|58, 234,3,
|148, 241,3,
|179, 168,1,
|197, 35,1,
|92, 6,1,
|150, 42,3,
|88, 139,3,
|228, 86,3,
|5, 221,3,
|201, 218,1,
|49, 219,1,
|22, 199,3,
|246, 13,1,
|60, 23,3,
|128, 91,1,
|115, 206,1,
|41, 182,1,
|214, 156,3,
|196, 96,1,
|211, 7,3,
|208, 129,3,
|59, 45,1,
|11, 61,3,
|49, 86,1,
|5, 11,3,
|199, 211,1,
|228, 150,3,
|109, 128,3,
|167, 35,3,
|229, 22,1,
|88, 219,3,
|196, 13,3,
|179, 148,3,
|45, 208,3,
|63, 7,3,
|207, 214,1,
|60, 206,1,
|96, 158,1,
|64, 105,3,
|42, 67,1,
|174, 200,3,
|241, 81,1,
|129, 55,3,
|139, 218,3,
|91, 217,1,
|221, 249,1,
|5, 174,3,
|11, 175,1,
|196, 86,1,
|212, 200,3,
|218, 109,1,
|7, 96,3,
|60, 105,3,
|208, 63,3,
|87, 42,3,
|148, 55,3,
|221, 48,3,
|35, 139,1,
|206, 249,1,
|81, 142,3,
|3, 49,3,
|256, 101,1,
|45, 219,3,
|161, 158,3,
|229, 167,3,
|204, 13,3,
|217, 67,1,
|64, 199,3,
|207, 179,3,
|63, 206,3,
|7, 225,1,
|218, 142,3,
|181, 148,1,
|204, 198,3,
|139, 64,1,
|161, 96,1,
|238, 125,3,
|38, 227,1,
|235, 221,3,
|101, 48,1,
|158, 67,3,
|212, 87,1,
|207, 249,1,
|124, 256,1,
|104, 208,3,
|60, 65,3,
|5, 3,1,
|35, 175,1,
|109, 199,1,
|190, 45,1,
|81, 42,3,
|250, 219,1,
|196, 174,1,
|238, 87,3,
|175, 225,3,
|71, 104,3,
|48, 147,3,
|250, 208,1,
|109, 242,3,
|90, 139,3,
|190, 114,3,
|196, 101,1,
|218, 158,3,
|3, 124,1,
|235, 20,3,
|125, 142,3,
|249, 38,1,
|198, 256,1,
|5, 227,1,
|53, 181,1,
|212, 67,1,
|245, 45,3,
|35, 204,1,
|219, 42,1,
|148, 65,3,
|174, 207,3,
|67, 99,3,
|147, 65,1,
|203, 225,3,
|53, 35,1,
|142, 90,3,
|210, 42,3,
|238, 114,1,
|104, 48,3,
|148, 218,1,
|38, 196,3,
|254, 189,1,
|158, 250,1,
|112, 36,3,
|249, 71,3,
|256, 14,3,
|74, 124,1,
|230, 207,1,
|245, 125,3,
|224, 20,1,
|175, 242,3,
|170, 3,3,
|5, 138,1,
|235, 188,3,
|114, 67,1,
|126, 218,3,
|33, 189,3,
|43, 14,3,
|170, 250,3,
|48, 42,1,
|238, 207,1,
|235, 254,3,
|74, 90,1,
|82, 148,3,
|171, 203,1,
|65, 124,3,
|138, 20,1,
|242, 36,1,
|210, 188,3,
|53, 175,1,
|112, 224,3,
|141, 71,3,
|104, 3,1,
|230, 225,1,
|249, 158,1,
|38, 99,3,
|245, 130,3,
|82, 238,3,
|36, 148,1,
|94, 130,3,
|180, 252,3,
|66, 33,1,
|93, 220,3,
|131, 126,3,
|25, 138,1,
|143, 186,1,
|189, 224,3,
|15, 99,1,
|103, 158,3,
|124, 14,3,
|20, 171,3,
|207, 116,3,
|65, 170,1,
|51, 257,3,
|110, 3,3,
|249, 237,3,
|38, 230,3,
|43, 175,1,
|2, 114,3,
|112, 141,1,
|250, 254,3,
|170, 93,2,
|38, 80,3,
|130, 160,3,
|189, 2,3,
|20, 220,3,
|230, 224,2,
|14, 180,3,
|3, 116,3,
|257, 15,2,
|43, 99,3,
|112, 124,2,
|51, 94,3,
|143, 252,2,
|238, 186,3,
|135, 103,3,
|158, 110,3,
|255, 108,3,
|66, 126,3,
|106, 36,2,
|237, 131,2,
|77, 187,3,
|121, 114,2,
|16, 25,3,
|36, 94,3,
|51, 120,3,
|255, 121,2,
|122, 252,3,
|108, 44,2,
|66, 15,3,
|106, 99,2,
|2, 103,3,
|119, 170,3,
|143, 3,2,
|124, 224,3,
|126, 112,3,
|110, 180,3,
|25, 160,3,
|20, 189,3,
|72, 80,2,
|230, 232,3,
|16, 162,3,
|149, 220,2,
|135, 43,3,
|238, 77,3,
|130, 186,3,
|154, 187,3,
|152, 36,3,
|3, 186,3,
|143, 119,3,
|15, 135,2,
|232, 224,3,
|130, 16,3,
|162, 230,3,
|154, 160,3,
|94, 25,3,
|252, 112,2,
|126, 108,2,
|43, 216,2,
|124, 180,3,
|236, 24,2,
|84, 107,2,
|51, 187,3,
|149, 72,2,
|77, 19,2,
|170, 103,3,
|113, 120,2,
|238, 122,3,
|78, 189,2,
|80, 83,3,
|244, 108,3,
|36, 62,3,
|44, 122,2,
|126, 186,3,
|25, 34,2,
|50, 145,3,
|222, 146,3,
|102, 16,2,
|24, 152,2,
|143, 189,3,
|75, 51,3,
|123, 236,3,
|162, 187,3,
|170, 144,2,
|154, 135,3,
|107, 98,3,
|68, 232,3,
|238, 83,3,
|43, 193,3,
|103, 40,3,
|230, 130,3,
|166, 94,3,
|102, 73,3,
|108, 187,3,
|146, 78,3,
|173, 119,3,
|193, 36,2,
|137, 97,2,
|172, 169,2,
|16, 216,2,
|238, 62,3,
|68, 134,2,
|162, 4,3,
|75, 213,2,
|185, 143,2,
|122, 145,3,
|57, 135,3,
|126, 79,3,
|30, 232,2,
|132, 186,3,
|94, 19,3,
|113, 25,3,
|24, 222,2,
|84, 46,3,
|107, 36,2,
|113, 119,3,
|186, 40,3,
|98, 166,3,
|145, 46,3,
|137, 144,2,
|79, 172,3,
|146, 152,3,
|50, 215,3,
|57, 132,3,
|173, 135,3,
|236, 127,2,
|78, 216,3,
|94, 123,3,
|34, 30,3,
|222, 68,2,
|25, 193,3,
|244, 62,3,
|83, 84,3,
|24, 97,2,
|222, 144,3,
|213, 123,2,
|34, 173,3,
|1, 107,2,
|165, 30,3,
|169, 75,3,
|231, 78,2,
|102, 68,3,
|37, 185,3,
|98, 40,3,
|79, 146,3,
|83, 134,2,
|151, 233,2,
|100, 84,3,
|119, 4,3,
|159, 113,3,
|46, 73,2,
|132, 50,3,
|193, 21,3,
|195, 215,3,
|85, 152,2,
|94, 76,3,
|85, 119,2,
|222, 100,3,
|113, 177,2,
|213, 202,2,
|57, 172,2,
|47, 248,2,
|165, 73,3,
|159, 37,2,
|231, 137,3,
|46, 233,3,
|134, 145,3,
|194, 83,3,
|39, 97,3,
|253, 29,3,
|127, 62,3,
|107, 146,3,
|24, 173,3,
|98, 183,3,
|123, 152,3,
|165, 145,3,
|193, 151,2,
|98, 1,2,
|132, 127,3,
|248, 231,3,
|137, 73,3,
|39, 172,2,
|30, 233,3,
|21, 24,2,
|253, 68,2,
|134, 215,2,
|47, 173,2,
|76, 202,3,
|107, 79,2,
|195, 222,3,
|73, 177,2,
|159, 194,2,
|134, 47,2,
|85, 151,3,
|146, 253,3,
|21, 202,2,
|30, 222,3,
|68, 233,3,
|39, 107,3,
|1, 46,3,
|165, 183,3,
|37, 137,2,
|100, 24,2,
|29, 195,3,
|];

meetingsxBusiness = [{1,442,482,504},
{1,303,309,336},
{1,180,206,223,256,277,299,313,338,353},
{1,407,453},
{1,64,79,107,128,144,166,206,228,257},
{1,21,45,62,79,106,124},
{1,63,82,97,139,154,171,190},
{1,10,42,59},
{1,21,43,71},
{1,23,32},
{1,105,142,144,167},
{1,16,33,52,83},
{1,132,151,185},
{1,250,262,294,312},
{1,292,314,334,355},
{1,328,346,357,382,404},
{1,66,77},
{1,8,46,68,92},
{1,369,415},
{1,224,254,271,295,310,343},
{1,457,488,500},
{1,87,102,131,149},
{1,50,84,104,133},
{1,365,383,417,438,477,488,507},
{1,289,328,342,360,379,416,435},
{1,20,28,70},
{1,94,100},
{1,17,29},
{1,474,508},
{1,413,433,443,487,501},
{1,2,40,56,95},
{1,17,38},
{1,261,286},
{1,379,433,441},
{1,110,123,148,177,207,232,239},
{1,248,272,283,324,329,352,376,401,419},
{1,447,468,506},
{1,197,226,245,280,301,307},
{1,473,486,503},
{1,394,421,448},
{1,76,99,136},
{1,93,111,125,159,174,210,233,241,264},
{1,262,302,315,348,363,393},
{1,333,377},
{1,88,98,141,153,182,209,231},
{1,418,423,455,470,504},
{1,466,491,497},
{1,176,199,216,243,264},
{1,106,130,143,180},
{1,380,427,456},
{1,298,317,330,367,385},
{1,12,35,59,73},
{1,229,239,274},
{1,51,93},
{1,162,175},
{1,18,43},
{1,411,428,465},
{1,5,37,60,95,113,120},
{1,109,141},
{1,133,156,172,205},
{1,58,91,96,142},
{1,376,405,436,475},
{1,154,173,189},
{1,158,187,194},
{1,205,234,237,270,297},
{1,286,323,334},
{1,159,186,200,230,236,259},
{1,391,406,434,446,489,502},
{1,7,33,62,74},
{1,22,32,54},
{1,215,249,276},
{1,344,368},
{1,397,455,467,485,495},
{1,251,267},
{1,385,408,444},
{1,460,492},
{1,326,349,369},
{1,373,399,431,445},
{1,412,425,449,493},
{1,307,344,374},
{1,161,179,210},
{1,268,282},
{1,374,392,437,450,472},
{1,366,418,437,452},
{1,459,461,498},
{1,20,30,68,78,110,127,143,168},
{1,174,201,213},
{1,119,126,150},
{1,83,118},
{1,219,240,267},
{1,5,39,55,76,118,134,164},
{1,18,38,65,94,116,124},
{1,287,306},
{1,284,317,329,360,396,415,432,460},
{1,19,45},
{1,87,99,138,157,171,195},
{1,402,438,473},
{1,390,422,448,478,482},
{1,236,280,292,315,335},
{1,452,462,507},
{1,181,199,221},
{1,382,397,446},
{1,293,320,336,370,394},
{1,204,215,243,277},
{1,158,172},
{1,324,335},
{1,366,390,419,442,476,493,503},
{1,322,333,362,375,398},
{1,147,170,208,218},
{1,299,321,341},
{1,2,29,58},
{1,248,275,304,316,340,361},
{1,371,416,420,454,463},
{1,220,242,259,303,327},
{1,108,135},
{1,296,313},
{1,9,44,57,81},
{1,14,49,64,89,105},
{1,337,354,400,420,453,461},
{1,330,371},
{1,327,331},
{1,332,372,377,410},
{1,386,432,440,479},
{1,203,223,251,270,294,316,339,364},
{1,196,225,253},
{1,260,288,323,340,362,378,412},
{1,430,475,483},
{1,134,147},
{1,12,39,72,75,115,140,162},
{1,281,284,308,350,357,395},
{1,288,325},
{1,414,428,456,483},
{1,6,40,69},
{1,406,450,471,490,497},
{1,320,348,355,389,411,429},
{1,86,114},
{1,402,424,469,485,506},
{1,257,271,289},
{1,102,126,163,177,194,219},
{1,3,41},
{1,276,304},
{1,179,191,225,240},
{1,290,318,338,354,384,409},
{1,388,424,439},
{1,380,410,423,471,480},
{1,381,399,426,449,476,499},
{1,216,237},
{1,121,152,175,192,234,244,268,283},
{1,347,368},
{1,125,146},
{1,451,481,498},
{1,352,383,426,459,479},
{1,15,42,71,90},
{1,351,359,389},
{1,4,48},
{1,24,26,65,73,117,137},
{1,53,90,111},
{1,157,183,200,222,247,279,293,321},
{1,454,468,496},
{1,308,342,359},
{1,183,195},
{1,346,358,387,407},
{1,25,27,67},
{1,4,31},
{1,443,467,480,505},
{1,396,422},
{1,148,184},
{1,103,122},
{1,403,444},
{1,256,263,297,306,337,370,388},
{1,269,295},
{1,403,425,465,486},
{1,400,429,441,477,491},
{1,160,166,212,235},
{1,167,207,214,255,274,302},
{1,8,37,72},
{1,463,495},
{1,6,47},
{1,107,122,152,188},
{1,285,312,341,364},
{1,192,229},
{1,74,116,136},
{1,478,505},
{1,16,36,53,88},
{1,409,447},
{1,290,319,350,353,378,414,421},
{1,326,351,367,387,398},
{1,258,273},
{1,246,261,291,309,343,373,384},
{1,209,220},
{1,14,41,66},
{1,23,47,60,85,97},
{1,393,401,435,457,481},
{1,472,496},
{1,458,494,508},
{1,138,151,168,212,221,245},
{1,13,28,52,80,100,123},
{1,193,227},
{1,3,34,70,78,119,131,145,187,208},
{1,160,169},
{1,13,44,55,85,96,129},
{1,464,492,500},
{1,238,269},
{1,185,193,232},
{1,11,27,51},
{1,117,135,156,178,189},
{1,155,188,202,235,252,265,296},
{1,11,34,67,89,101,140,153,173,204,217},
{1,77,104},
{1,241,273},
{1,84,98,139,145},
{1,169,201,230},
{1,408,440,464},
{1,9,36,50,92,112,137,155},
{1,427,458,490},
{1,363,404,431},
{1,164,186},
{1,113,129,163,170,191,222,244,260},
{1,108,130,150,182,211,233},
{1,287,310,347},
{1,80,109,128,165,176,198},
{1,381,417,434,439,462,494,501},
{1,25,49},
{1,254,275,291,311,339,356},
{1,190,214,238,278},
{1,54,91,101},
{1,197,228},
{1,103,127,146},
{1,149,184},
{1,252,278,301,311,345,358,395},
{1,445,469,484},
{1,345,356,391,413},
{1,451,470,487,502},
{1,114,120},
{1,198,224,258,266},
{1,365,386,430},
{1,300,325},
{1,196,213,242,265,282,319,349,372,392,405},
{1,22,48,63,75},
{1,24,30,69,86},
{1,121,161},
{1,218,255,272},
{1,7,46,61},
{1,375,436},
{1,231,253,281},
{1,10,26,61,81,115,132},
{1,19,35,57},
{1,466,484},
{1,165,178,202,226,249,279,300},
{1,211,217,247,263,305},
{1,15,31,56},
{1,285,318,332,361},
{1,474,489,499},
{1,246,266,305},
{1,322,331},
{1,181,203,227,250},
{1,298,314},
{1,82,112}];

nMeetingsBusiness = [3,3,9,2,9,6,7,3,3,2,4,4,3,4,4,5,2,4,2,6,3,4,4,7,7,3,2,2,2,5,4,2,2,3,7,9,3,6,3,3,3,9,6,2,7,5,3,5,4,3,5,4,3,2,2,2,3,6,2,4,4,4,3,3,5,3,6,6,4,3,3,2,5,2,3,2,3,4,4,3,3,2,5,4,3,8,3,3,2,3,7,6,2,8,2,6,3,5,5,3,3,3,5,4,2,2,7,5,4,3,3,6,5,5,2,2,4,5,6,2,2,4,4,8,3,7,3,2,7,6,2,4,3,5,6,2,5,3,6,2,2,4,6,3,5,6,2,8,2,2,3,5,4,3,2,6,3,8,3,3,2,4,3,2,4,2,2,2,2,7,2,4,5,4,6,3,2,2,4,4,2,3,2,4,2,7,5,2,7,2,3,5,5,2,3,6,6,2,9,2,6,3,2,3,3,5,7,10,2,2,4,3,3,7,3,3,2,8,6,3,6,7,2,6,4,3,2,3,2,7,3,4,4,2,4,3,2,10,4,4,2,3,3,2,3,6,3,2,7,5,3,4,3,3,2,4,2,2];

forbidden = [{0,1,2,3,4,5,6,7,8,9,10,11,12,13,14,15,16,17,18,21},
{0,6},
{0},
{0,1,2,3,4,5,6,7,8,9,10,11,12,13,14,15,16,17,19,21,22,23},
{0,16},
{0,12,15},
{0,15},
{0,11,21},
{0,9,12,14},
{0,3},
{0,4,9,10,13,16,17},
{0,6,7,8,12},
{0,4,5,19},
{0,17},
{0,20},
{0},
{0,10,18},
{0,20},
{0,1,2,3,4,5,6,7,8,9,10,11,12,13,14,15,17,19,20,21,22,23},
{0},
{0,1,2,3,4,5,6,7,8,9,10,11,12,13,14,15,16,17,18,21},
{0},
{0,16,17},
{0,1,2,3,4,5,6,7,8,9,10,11,12,13,20},
{0,3},
{0,13,16},
{0,14},
{0,5},
{0,1,2,3,4,5,6,7,8,9,10,11,12,13,14,15,16,17,18,19,20,22},
{0,1,2,3,4,5,6,7,8,9,10,11,12,13,14,15,16,21},
{0,6},
{0,4,6,8},
{0,6},
{0,1,2,3,4,5,6,7,8,9,10,11,12,13,14,15,16,18,21,22,23},
{0,2,21},
{0},
{0,1,2,3,4,5,6,7,8,9,10,11,12,13,14,15,16,17,18,19,22},
{0,7,8,17,19},
{0,6,14},
{0,1,2,3,4,5,6,7,8,9,10,11,12,13,14,15,18,21,22,23},
{0,10,11},
{0,1,23},
{0,3,7},
{0,1,2,3,4,5,6,7,8,9,10,11,12,13,14,16,18,19,20,21,22,23},
{0,1},
{0,1,2,3,4,5,6,7,8,9,10,11,12,13,14,15,16,17,22},
{0,17},
{0},
{0,10,16,17},
{0,1,2,3,4,5,6,7,8,9,10,11,12,13,14,15,18,21,22,23},
{0,11,20},
{0,6},
{0,3},
{0,15,16,23},
{0,17},
{0,7,17},
{0,1,2,3,4,5,6,7,8,9,10,11,12,13,14,15,16,17,20,23},
{0,8,12},
{0,2,4,22},
{0},
{0,20},
{0,1,2,3,4,5,6,7,8,9,10,11,12,13,14,15,16,20},
{0,10,14,19},
{0},
{0},
{0},
{0,21,23},
{0,1,2,3,4,5,6,7,8,9,10,11,12,13,14,15,21},
{0,8,15,17},
{0,20,21,22},
{0,20},
{0,2,19},
{0,1,2,3,4,5,6,7,8,9,10,11,12,13,14,19},
{0},
{0,1,2,3,4,5,6,7,8,9,10,11,12,13,14,15,16,19,22,23},
{0,1,2,3,4,5,6,7,8,9,10,11,12,13,14,15,16,17,18,19,21,23},
{0,3,9,11},
{0,1,2,3,4,5,6,7,8,9,10,11,12,13,17,21,22,23},
{0,1,2,3,4,5,6,7,8,9,10,11,12,13,14,15,16,17,21,23},
{0,13},
{0,3},
{0,3,22},
{0,1,2,3,4,5,6,7,8,9,10,11,12,13,18,23},
{0,1,2,3,4,5,6,7,8,9,10,11,12,13,17,21,22,23},
{0,1,2,3,4,5,6,7,8,9,10,11,12,13,14,15,16,17,18,19,22},
{0,10},
{0,11},
{0,1},
{0,8,14},
{0,14,16},
{0,13},
{0},
{0,15},
{0,7,21},
{0,5,7},
{0},
{0,1,2,3,4,5,6,7,8,9,10,11,12,13,14,15,16,17,20,23},
{0,1,2,3,4,5,6,7,8,9,10,11,12,13,18,23},
{0,1,3,8,17},
{0,1,2,3,4,5,6,7,8,9,10,11,12,13,14,15,16,17,18,19,22},
{0,19},
{0,1,2,3,4,5,6,7,8,9,10,11,12,13,14,15,16,19,22,23},
{0,3},
{0,5},
{0,3,18},
{0},
{0,1,2,3,4,5,6,7,8,9,10,11,18},
{0,11},
{0,15,22},
{0,5,11,19,22},
{0},
{0,21},
{0,1,2,3,4,5,6,7,8,9,10,11,12,14,17,22,23},
{0},
{0,1,17},
{0,19},
{0,8,9,11,19},
{0,10,14,19},
{0,1,2,3,4,5,6,7,8,9,10,11,17,23},
{0,11,19},
{0,8},
{0,3,14,19},
{0,1,2,3,4,5,6,7,8,9,10,11,12,13,14,18,22,23},
{0,22},
{0,8,22},
{0},
{0,1,2,3,4,5,6,7,8,9,10,11,12,13,14,15,16,17,20,23},
{0,16,20,23},
{0,8,15},
{0,18,22},
{0,1},
{0,1,2,3,4,5,6,7,8,9,10,11,12,13,14,15,16,17,21},
{0,4},
{0,1,2,3,4,5,6,7,8,9,10,11,12,13,14,16,19},
{0,5,11,12},
{0,7,14,20},
{0,1,2,3,4,5,6,7,8,9,10,11,12,13,14,15,20},
{0,3,5,8},
{0,18},
{0,13},
{0},
{0},
{0,1,5,21},
{0,1,2,3,4,5,6,7,8,9,10,11,12,13,14,15,18,21,22,23},
{0,1,2,3,4,5,6,7,8,9,10,11,12,13,14,15,20},
{0,1,2,3,4,5,6,7,8,9,10,11,12,13,14,15,16,22},
{0,14},
{0,14},
{0},
{0,1,14,19},
{0,1,2,3,4,5,6,7,8,9,10,11,12,13,14,15,16,17,18,21},
{0,1,2,3,4,5,6,7,8,9,10,11,12,13,18,23},
{0,15,23},
{0,11,12},
{0,17},
{0,16,17},
{0,8,12,13,15,21},
{0,17},
{0,1,2,3,4,5,6,7,8,9,10,11,12,13,14,15,16,17,18,19,22},
{0,1,2,22},
{0,7},
{0,4},
{0,10,13,16},
{0,11,12},
{0,4},
{0,1,2,3,4,5,6,7,8,9,10,11,12,13,14,15,16,18,20,21,22,23},
{0},
{0,9},
{0,1,2,3,4,5,6,7,8,9,10,11,12,13,14,15,16,17,19,21,22,23},
{0,1,9,22},
{0,20,22},
{0,1,2,3,4,5,6,7,8,9,10,11,12,13,14,15,16,20},
{0,16},
{0},
{0,6,18,21},
{0,18,23},
{0,1,2,3,4,5,6,7,8,9,10,11,12,13,14,15,16,17,18,19,20,22},
{0},
{0},
{0},
{0,8,23},
{0,13,22},
{0,1,2,3,4,5,6,7,8,9,10,11,12,13,14,15,16,17,18,19,20,22},
{0},
{0,1,2,3,4,5,6,7,8,9,10,11,12,13,14,15,16,17,19,21,22,23},
{0,21},
{0,11},
{0,6,21},
{0,8},
{0},
{0,4,17},
{0},
{0,1,2,3,4,5,6,7,8,9,10,11,12,13,14,15,16,21},
{0,1,2,3,4,5,6,7,8,9,10,11,12,13,14,15,16,17,18,19,20,22},
{0,1,2,3,4,5,6,7,8,9,10,11,12,13,14,15,16,17,18,21},
{0,15},
{0,9},
{0},
{0,19,21},
{0,12,23},
{0,14},
{0,7},
{0,5,14,17},
{0,20,21},
{0,9},
{0,13},
{0,6},
{0,18,20},
{0,9},
{0,4},
{0,12},
{0,4,6},
{0,1,2,3,4,5,6,7,8,9,10,11,12,13,14,15,16,17,19,22,23},
{0},
{0,1,2,3,4,5,6,7,8,9,10,11,12,13,14,15,16,17,18,21,23},
{0,1,2,3,4,5,6,7,8,9,10,11,12,13,14,17,20,21,22,23},
{0,15,21},
{0,1,3,13},
{0,13,22},
{0,1,2},
{0,2,12},
{0,8,15},
{0,7,15,21,23},
{0,19,23},
{0,17},
{0,16,20},
{0,1,6,17,19,20},
{0,18},
{0,1,2,4,10,15},
{0},
{0,1,2,11,15},
{0,7,23},
{0,11},
{0,20},
{0,16},
{0,1,2,3,4,5,6,7,8,9,10,11,12,13,14,15,18,21,22,23},
{0,8,16},
{0},
{0,9,16},
{0,5},
{0},
{0,16},
{0,12},
{0,1,2,3,4,5,6,7,8,9,10,11,12,13,14,15,16,18,20,21,22,23},
{0,15,16},
{0,17},
{0},
{0,3,8,14},
{0,16},
{0,20},
{0,4,13},
{0,12},
{0,6,9},
{0,2,15},
{0,5,6,17,20},
{0,14,18},
{0},
{0,2,9,14}];

fixed = [0,0,0,0,0,0,0,0,0,0,0,0,0,0,0,0,0,0,0,0,0,0,0,0,0,0,0,0,0,0,0,0,0,0,0,0,0,0,0,0,0,0,0,0,0,0,0,0,0,0,0,0,0,0,0,0,3,0,0,0,0,3,0,0,0,0,0,0,3,0,0,0,0,0,0,0,0,0,0,0,0,0,0,0,0,0,0,0,0,0,0,0,0,0,0,0,5,0,0,5,0,0,0,0,0,0,0,0,0,0,0,0,0,0,0,0,0,0,0,6,0,0,0,0,0,0,0,0,0,0,0,0,0,0,0,0,0,0,0,0,0,0,0,7,0,0,0,0,0,0,7,0,0,0,0,0,0,7,0,0,0,0,0,0,0,0,0,0,0,0,0,0,0,0,0,0,0,0,0,0,0,0,0,0,0,0,0,0,0,0,0,0,0,0,0,0,0,0,9,0,0,0,0,0,0,0,0,0,0,0,0,0,0,0,0,0,0,0,0,0,0,0,0,0,0,0,0,10,0,0,0,0,10,0,11,0,0,0,0,0,0,0,0,0,0,11,0,0,0,0,0,0,0,0,0,0,0,0,0,0,0,0,0,0,0,0,0,0,0,0,0,0,0,0,0,0,0,0,0,0,0,0,0,0,0,13,0,0,0,0,0,0,0,0,0,0,0,0,0,0,0,0,0,0,0,0,0,0,0,0,14,0,0,0,0,0,0,0,0,0,0,0,14,0,0,0,0,0,0,0,0,0,0,0,0,0,0,0,0,15,0,0,0,0,0,0,0,0,0,0,0,0,0,0,0,0,0,0,0,0,0,0,0,0,0,16,0,0,0,0,0,0,0,0,0,0,0,0,0,17,0,0,0,0,0,0,17,0,0,0,0,0,0,0,0,0,0,0,18,0,0,0,0,0,0,0,0,0,0,18,0,0,0,0,0,0,0,0,0,0,0,0,0,0,0,0,19,0,0,19,0,0,0,19,0,0,0,0,0,0,0,0,0,0,0,0,0,0,0,0,0,0,20,0,0,0,0,0,0,0,0,0,0,0,0,21,0,0,0,0,0,0,0,0,0,0,0,0,0,0,0,0,0,0,0,0,0,0,0,22,0,0,0,0,23,0,0,0,0,0,0,0,0,0,0,0,0];

precedences = [{},
{},
{},
{},
{},
{},
{},
{},
{},
{},
{},
{},
{},
{},
{},
{},
{},
{},
{},
{},
{},
{},
{},
{},
{1,2,3,4,5,7,10,14,18,20,21,23},
{1,7,12,16,17,19,20,21,22,23},
{1,3,4,6,7,8,10,13,15,16,21,23},
{5,7,9,13,18,19,22,23,24},
{4,5,7,12,17,19,22},
{1,2,4,7,9,13,18,19,20,21,23,24},
{1,3,4,6,7,10,17,18,20,21,24},
{2,4,7,11,12,17,18,20,21},
{2,7,9,12,20,21,22,23},
{1,3,5,9,11,12,13,22},
{4,8,11,12,14,16,18,20,21},
{5,6,7,9,11,15,17,20,21},
{1,5,8,10,18,19,21,22,23,24},
{1,5,6,11,12,15,18,19,20,22,23,24},
{2,3,5,9,10,11,13,18,23},
{2,4,9,12,14,15,18,22,24},
{2,5,7,10,14,15},
{2,4,6,7,12,14,15,23,24},
{4,7,9,13,19,20},
{5,13,16,21},
{1,4,6,8,12,13,14,15,16,20},
{4,5,6,8,10,20,21,22},
{6,7,8,11,13,15,16,17,18,19,21,24},
{13,14,16,17,19,22,23,24},
{1,2,3,4,6,7,8,10,11,13,17,18,20,24,25,26,28,30,31,33,34,35,40,41,42,47},
{1,5,6,9,10,12,14,16,18,20,22,25,26,31,33,36,39,42,47},
{1,2,3,7,10,13,15,16,17,20,24,25,26,30,31,37,39,45},
{3,4,5,7,9,10,12,13,18,21,24,29,33,36,37,38,39,41,43,45,46,47,48},
{2,5,7,8,9,12,13,14,19,22,23,29,30,31,36,37,38,39,41,43,47},
{3,4,6,9,10,16,17,18,19,20,21,23,25,26,27,29,34,35,36,38,39,42,43,44,45,48},
{2,4,5,11,13,15,21,22,23,25,26,30,32,34,35,37,46},
{1,6,9,15,16,17,18,23,25,30,32,33,36,38,44,45},
{5,6,8,9,12,15,17,18,21,24,27,31,32,36,37,39,45,47},
{2,4,10,11,19,22,24,28,31,37,38,39,41,42,45},
{2,3,5,7,9,16,21,24,25,26,27,28,29,30,36,38,40,41,45,46,47},
{1,2,3,5,6,7,10,13,18,33,34,37,38,42,43,44},
{2,3,5,6,8,9,10,13,14,16,20,22,27,30,35,38,40,44,46,47,48},
{2,5,10,12,14,19,21,22,27,29,33,35,36,39,41,43,44},
{2,4,6,9,12,13,17,24,25,26,27,32,33,38,42,43,44,45},
{2,9,11,12,15,19,20,21,22,24,28,29,30,34,37,40},
{1,3,4,7,11,18,19,21,26,29,37,38,46,48},
{6,7,9,11,13,16,17,20,21,22,24,27,34,35,39,44},
{2,3,4,5,9,22,25,26,29,30,31,32,34,37,39,42,45,46},
{3,6,9,13,15,26,34,36,39,40,41},
{1,4,5,7,8,11,14,23,27,28,29,35,40,44,47},
{1,2,5,7,8,11,13,14,17,18,19,21,25,27,28,33,34,36,37,38,40,43,45,47,48},
{1,3,5,9,11,17,18,24,27,31,32,34,37,41,42,46},
{5,7,8,9,10,11,13,18,20,24,27,30,36,37,44,45,46,47,50,51,52,56,58,59,62,63,66,70},
{1,2,4,5,6,9,14,17,20,21,22,24,25,29,31,34,37,39,42,44,48,49,52,53,56,61,64,67,71},
{1,2,3,6,7,9,10,13,14,18,19,23,24,25,27,31,35,36,38,47,50,51,56,61,64,65,68,69},
{7,8,9,12,16,17,19,20,22,25,29,30,31,35,40,42,43,44,45,48,53,56,58,62,64,65,67,70},
{2,4,7,8,10,11,12,15,17,19,20,21,24,25,26,28,32,38,41,45,46,47,48,50,52,53,54,55,57,59,64,65,67,70},
{1,3,5,6,8,10,11,13,14,17,18,19,20,24,26,30,34,36,39,41,43,44,46,50,51,55,56,59,63,65,68,70,71},
{2,4,5,6,7,9,15,16,25,26,30,31,33,35,37,38,41,42,44,47,49,50,57,63,64,67,68,71},
{3,5,6,9,12,14,20,21,22,23,24,25,28,31,37,39,46,54,56,58,60,69,70},
{4,5,7,8,10,11,14,15,16,17,19,21,22,25,28,30,31,40,46,48,50,54,56,57,58,59,63,66,68,69,70},
{3,4,5,8,12,14,18,19,21,23,24,27,30,31,32,40,41,43,44,49,54,55,56,57,59,60,71},
{9,10,16,20,21,23,25,26,27,31,33,34,35,40,43,45,52,53,60,61,62,63,69},
{1,2,4,5,8,10,12,14,16,17,18,25,27,28,34,35,38,40,42,43,44,45,46,48,52,53,55,57,62,64,66,68,70,71},
{3,4,5,6,8,12,15,17,19,20,23,26,27,30,32,37,38,40,42,43,46,58,59,60,61,62,63,64,66},
{1,6,7,8,10,12,13,14,15,21,23,27,28,32,35,37,38,40,41,42,43,45,47,52,55,56,58,59,61,63,67,68,70},
{2,3,5,8,10,11,12,13,16,17,19,20,21,26,28,33,35,36,37,38,39,43,47,48,54,57,60,61,63,65,66,69,71},
{8,9,11,13,15,17,21,22,24,28,29,31,32,34,35,37,39,40,41,42,46,47,51,58,59,60,65,66,68},
{2,8,12,14,15,19,20,21,22,24,29,30,35,37,38,39,44,47,48,49,53,54,58,59,61,66,68,71},
{2,4,5,6,10,13,14,17,21,22,23,25,26,28,29,30,31,32,33,34,35,36,38,39,40,44,45,46,49,61,62,65,69,71},
{1,2,3,4,8,11,13,14,16,19,22,23,24,25,28,31,34,36,37,38,40,41,43,44,47,49,53,54,55,56,57,58,59,60,61,62,63,64,67},
{1,2,6,9,10,23,30,33,37,38,39,44,46,48,49,54,56,57,58,59,66,67,70},
{5,9,10,14,15,20,25,27,34,36,40,45,46,49,50,54,55,59,60,62,65,67,70,71},
{2,3,4,7,10,12,13,16,17,21,23,25,26,29,30,31,34,35,38,43,44,47,49,53,54,58,59,60,61,66,67,69},
{3,4,7,10,16,18,19,21,22,24,27,28,34,36,37,39,42,44,45,56,69,70},
{1,4,5,7,8,10,12,15,16,17,22,23,28,30,33,36,37,38,41,43,44,46,50,51,53,57,58,60,61,62,69,72,76,77,82,83,84,86,92,94},
{2,4,5,8,10,15,19,22,26,31,40,43,46,48,49,51,53,55,57,59,60,64,66,71,72,74,75,85,91,93},
{4,10,16,18,20,23,24,25,27,28,30,31,35,36,40,41,44,51,52,53,54,55,61,66,69,71,72,73,75,82,83,85,86,94},
{4,8,10,13,15,17,20,22,23,24,27,29,30,31,35,40,45,46,47,51,53,56,62,68,69,72,73,76,80,81,82,86,90,91,94},
{1,2,4,7,11,13,15,19,20,22,26,29,32,33,34,35,36,39,44,46,48,49,51,52,53,55,58,70,74,81,82},
{1,5,10,11,13,15,17,20,22,23,25,26,28,36,37,40,42,46,47,48,49,52,54,55,63,66,73,75,77,78,86,87,88,93,94},
{3,4,5,7,11,12,15,18,22,25,26,29,31,32,33,34,35,36,39,41,44,45,54,57,59,61,63,64,65,69,71,73,74,75,77,81,82,85,90,94},
{1,2,4,6,7,8,9,12,16,20,31,32,33,36,38,43,46,50,51,53,56,59,60,61,62,63,64,65,66,69,70,72,75,76,77,78,79,91,94},
{1,2,4,5,6,10,14,16,17,21,22,23,24,25,26,27,30,31,34,37,38,39,44,45,46,47,49,50,56,57,58,62,66,73,78,80,85,88,89,91,93},
{1,2,5,12,18,19,21,22,23,26,27,29,37,38,41,43,44,45,48,49,51,56,58,59,62,64,65,68,69,73,75,79,84,86,87,90,91,92,93,94},
{2,3,5,6,15,17,18,21,27,28,32,33,34,38,40,42,43,46,47,48,54,59,61,63,70,71,81,88,89,90,94},
{1,5,20,21,22,24,27,28,29,32,33,39,40,45,47,51,52,58,60,65,66,69,70,73,76,77,81,87,93},
{4,13,15,19,23,24,33,39,40,42,43,47,49,56,58,59,60,64,66,68,69,72,74,76,77,81,82,90,91,94},
{5,6,7,10,12,13,19,25,27,33,37,38,39,40,42,45,49,50,51,53,58,59,60,74,76,77,83,85,87,88,93},
{3,7,14,17,18,19,24,31,32,33,34,35,38,39,41,44,53,62,67,68,73,76,87,89,91,92},
{5,9,10,11,12,13,14,15,17,19,20,21,27,29,30,38,46,47,48,51,55,56,57,58,60,61,62,64,68,71,74,76,77,79,82,83,84,87,92,93},
{2,4,5,6,9,11,12,17,18,21,23,26,27,30,32,37,39,41,42,43,44,50,58,59,60,63,64,65,66,68,69,71,72,73,77,84,90},
{2,7,13,16,19,20,22,23,26,28,32,35,36,38,39,40,41,42,44,48,51,53,57,61,64,66,68,70,74,75,87,89,92},
{2,3,4,5,8,9,14,15,19,21,24,25,27,28,31,35,40,41,46,49,50,52,53,55,56,57,61,62,64,65,69,70,71,75,78,79,81,82,85,88,89,92},
{1,2,4,6,8,9,11,12,15,16,17,20,21,23,24,27,30,31,33,34,35,36,41,42,45,46,49,52,54,55,56,60,63,68,70,72,73,74,75,78,81,84,85,86,87,88,91,92},
{1,6,9,10,12,14,15,17,18,21,28,33,42,47,50,52,53,60,61,64,65,68,72,76,79,81,82,85,89,91,93},
{1,2,3,4,6,7,10,12,17,21,29,30,33,34,35,39,44,48,50,53,55,59,60,61,63,66,68,70,71,73,74,75,77,78,84,85,86,89,92,93},
{1,2,4,5,7,9,10,11,12,13,15,17,19,20,21,22,23,26,30,35,37,39,40,42,43,47,49,52,53,55,57,59,60,61,63,64,66,67,73,78,79,82,84,85,88,90,94},
{3,4,9,14,16,19,20,21,23,24,28,32,34,35,37,44,45,46,48,52,53,54,62,66,68,69,71,74,77,78,80,81,83,84,86,90,91,93,94},
{5,7,9,10,14,15,18,19,21,25,26,27,28,30,34,35,36,37,41,42,44,47,48,52,54,63,64,77,82,83,84,85,88,92,93,94,95,96,101,106,109,111,116},
{1,2,3,4,5,6,7,8,11,13,14,18,23,25,26,27,28,37,48,49,50,51,56,59,64,65,67,68,69,70,75,78,83,85,90,93,94,95,96,97,100,103,108,109,112,114,116},
{1,2,3,5,6,9,10,12,14,15,18,21,23,25,26,35,39,41,42,43,51,56,60,61,64,65,68,70,73,76,77,78,79,86,87,90,91,92,93,99,101,104,108,112,113,116,117,118},
{2,3,4,9,12,15,19,21,24,25,26,27,28,36,38,39,41,45,53,55,56,59,63,65,66,70,72,75,76,79,83,84,85,87,89,93,94,95,96,99,101,102,103,106,109,110,113,114,116,118},
{2,3,9,10,12,13,14,16,18,22,23,25,26,31,34,37,39,41,42,46,48,50,51,58,59,61,64,65,69,71,75,81,83,84,87,92,96,98,99,102,106,112,116,117,118},
{5,8,11,15,22,25,30,31,34,36,39,43,47,51,53,56,58,60,64,66,71,74,80,82,83,87,88,89,90,91,92,93,95,97,98,100,104,105,106,107,111,113,114,116,117,118},
{1,5,6,8,10,12,14,17,18,19,20,21,23,26,27,33,34,37,38,39,40,41,42,46,47,50,53,54,55,57,60,62,64,66,67,69,73,74,80,81,83,84,87,90,91,94,101,102,106,113,114,115,117,118},
{10,11,12,14,15,17,19,20,21,23,27,30,31,35,37,40,43,44,45,47,48,52,54,56,58,59,63,66,68,70,71,72,77,78,83,85,86,87,88,90,92,95,96,103,109,113,117},
{3,9,12,16,17,18,19,21,26,27,29,31,32,33,34,38,42,47,48,49,52,53,56,59,62,64,65,66,67,69,70,72,74,81,83,84,86,87,89,96,97,99,103,112,113,114,117},
{2,4,7,13,16,17,20,22,24,26,27,28,29,30,34,39,40,43,44,49,50,53,55,58,61,66,67,68,69,70,74,84,86,88,93,96,98,100,101,104,107,109,111,113,115,116,118},
{6,12,14,16,17,18,19,20,22,24,25,27,29,31,33,36,38,40,43,46,47,48,52,54,56,57,61,62,63,68,70,71,72,73,76,77,79,80,81,88,89,94,97,100,105,108,111,113,118},
{1,3,10,13,15,22,26,29,30,33,34,35,36,37,38,39,43,44,45,48,49,51,53,55,57,58,61,62,63,64,66,70,73,75,77,80,81,88,91,93,94,95,97,100,101,102,103,106,108,110,115,118},
{2,3,4,9,18,23,32,35,36,37,38,44,45,46,47,49,53,59,60,63,64,67,71,72,76,78,80,81,84,86,87,89,99,102,103,104,107,108},
{3,4,6,9,10,11,12,16,17,19,20,22,29,31,32,36,38,44,50,51,52,57,58,62,63,70,71,72,77,80,82,86,89,90,92,94,97,99,104,105,109,110,111,113,114,115,117,118},
{1,2,4,5,7,8,9,11,13,16,17,18,20,21,23,26,28,29,31,37,38,45,49,50,52,53,55,56,57,62,67,70,71,73,74,79,82,87,89,92,99,100,101,105,106,109,112,116,118},
{1,2,5,7,11,12,17,18,22,25,26,27,30,31,32,35,36,37,38,42,49,52,53,54,58,59,61,67,68,72,76,78,86,87,92,98,99,100,104,107,108,109,110,112,114,117,118},
{1,6,9,11,13,19,20,21,22,24,25,26,27,31,33,35,36,39,40,42,43,44,45,46,48,50,52,53,57,58,59,60,63,64,67,69,72,73,75,79,81,83,87,88,90,93,96,98,101,106,107,110,115,118},
{3,5,7,16,20,22,28,30,34,37,38,39,43,44,45,48,51,52,61,66,67,68,74,82,83,84,86,88,90,91,92,94,95,96,98,99,100,107,110},
{1,2,3,5,6,8,10,11,13,16,17,20,22,24,32,33,35,37,38,39,40,42,43,48,49,50,53,57,58,59,61,64,68,70,72,73,74,80,86,87,88,89,91,96,100,101,106,108,109,112,114,115,118},
{1,2,4,6,8,9,12,14,17,18,19,25,30,32,33,34,35,36,38,41,43,44,47,51,54,55,56,64,65,68,69,73,79,81,83,84,85,92,95,98,99,100,105,108,109,111,112,114,116,117,118},
{3,4,5,6,7,9,15,16,17,18,19,20,21,22,23,27,32,44,46,49,50,51,54,55,58,59,62,63,68,72,87,89,90,92,93,95,96,99,100,101,107,109,114,115},
{3,5,7,16,17,21,22,23,25,29,30,36,37,40,41,45,47,52,53,54,57,58,59,60,63,65,66,70,78,79,85,87,88,90,94,95,96,101,102,111,117},
{15,17,18,23,26,29,31,33,35,38,41,45,49,50,57,62,63,64,65,67,71,72,73,76,77,78,81,82,83,85,87,91,95,102,104,105,106,109,115,116,117,118},
{5,7,8,9,12,14,15,18,19,21,25,26,29,30,31,32,34,35,36,42,50,52,53,57,58,60,61,62,64,65,66,67,69,70,71,75,82,84,87,91,93,96,100,102,111,113,119,122,123,126,128,130,132,136,137,140},
{1,4,6,8,11,12,17,21,27,29,32,36,37,40,43,45,50,51,53,55,56,60,61,64,67,68,69,72,74,78,80,84,86,87,88,89,91,99,101,104,105,106,110,113,114,120,121,125,130,131,133,135,136},
{2,4,6,7,8,10,13,15,17,22,26,31,35,41,42,44,46,48,51,53,56,61,62,65,68,69,73,75,79,80,85,88,93,94,95,97,98,101,103,106,107,115,116,121,122,123,124,127,128,129,134,137},
{3,5,10,16,18,21,22,24,30,33,34,38,40,41,42,44,48,49,51,54,57,58,60,63,64,70,71,76,77,79,82,85,88,90,91,93,97,101,105,107,109,111,112,119,123,127,128,130,134,135},
{1,2,3,5,10,13,14,15,20,23,25,29,30,36,39,43,45,46,47,54,55,56,61,63,65,66,67,68,71,74,75,82,84,86,87,90,94,96,99,102,105,106,107,113,115,125,126,127,132,133,138,139,140},
{2,3,5,7,8,9,17,20,21,31,33,36,38,40,43,46,48,53,54,58,59,63,64,67,71,76,78,79,80,82,88,89,90,91,92,93,94,97,102,105,106,107,109,110,113,114,116,119,121,122,124,126,128,130,131,133,139,140,141},
{2,4,6,8,17,21,22,23,25,27,29,30,36,42,45,49,50,56,59,64,65,69,70,71,73,75,76,79,81,82,87,89,90,93,95,96,99,100,101,103,111,113,116,118,123,124,127,132,133,135,137,138,139},
{2,4,5,8,9,13,15,22,25,28,30,31,33,39,42,45,48,50,51,56,58,59,60,62,66,67,68,76,80,84,85,86,87,89,90,91,92,95,97,98,100,103,108,109,111,114,119,120,121,122,123,124,131,135,136,140},
{2,3,4,5,7,8,11,12,15,22,24,25,29,31,34,35,37,40,41,47,52,53,55,58,59,63,64,65,67,70,75,77,78,81,83,84,86,88,90,103,105,106,112,113,115,118,119,120,123,125,126,128,129,131,133,134,139,140,141},
{3,4,8,9,10,18,21,22,23,32,34,40,42,44,46,50,52,54,55,57,64,69,70,71,72,73,76,77,78,79,80,81,85,86,87,91,96,99,100,101,103,106,107,110,112,115,117,119,120,121,123,127,128,129,130,132,133,138,139,140},
{1,2,4,6,8,9,12,16,18,20,21,23,27,29,30,35,37,40,44,48,49,52,56,57,59,60,62,68,70,71,78,80,81,87,88,89,90,91,92,95,96,98,99,101,102,105,112,113,118,119,120,121,125,127,129,130,131,136,137,140,141},
{7,8,11,14,15,17,19,23,25,27,30,32,34,35,36,39,41,42,43,46,47,49,51,55,56,58,60,61,66,67,71,73,78,79,81,82,83,85,87,89,90,91,92,93,95,99,100,104,114,117,124,125,132,134,139,140},
{1,4,6,13,16,19,21,22,23,24,26,27,28,31,33,35,36,39,42,44,46,47,49,51,52,56,58,64,65,68,70,73,76,77,82,84,89,91,93,94,99,104,105,106,107,109,110,114,116,119,121,122,123,125,126,133,135,136,137,141},
{2,6,7,8,12,16,17,19,20,21,23,24,25,27,30,40,48,50,51,52,53,54,55,56,57,59,61,69,70,72,73,74,77,80,84,90,91,92,96,97,99,100,102,103,104,106,107,109,111,113,114,115,116,117,119,121,122,124,125,127,131,133,137,141},
{1,4,7,10,15,17,20,23,26,31,32,35,38,39,41,42,44,46,48,50,51,52,53,56,57,59,60,65,66,67,69,71,73,80,81,85,89,90,95,97,99,102,103,106,111,112,115,119,120,123,124,125,127,128,130,132,137,140,141},
{2,3,6,11,12,13,16,17,23,26,34,35,37,40,41,53,57,59,60,61,68,70,72,78,79,81,82,84,87,89,91,93,95,105,107,108,111,114,115,117,120,126,130,134,139,140},
{1,3,6,7,11,13,18,20,21,27,35,43,47,49,50,51,52,56,59,60,61,62,64,65,66,67,71,72,73,75,77,79,80,84,86,87,90,92,96,97,98,101,103,104,106,110,113,115,117,119,125,127,130,132,134,139},
{1,6,9,10,12,18,20,22,28,30,33,37,40,41,44,45,46,48,51,54,55,56,68,70,72,73,75,76,77,79,80,81,89,94,96,99,100,102,104,110,117,119,121,122,125,131,133,134,138},
{2,4,8,9,11,15,16,18,19,20,21,22,24,27,35,38,39,40,50,52,57,62,63,64,66,67,70,71,74,75,76,78,80,81,86,88,92,97,100,101,103,106,109,121,123,124,125,126,128,130,135,137},
{3,4,6,7,8,12,16,18,20,21,22,23,27,37,40,41,43,44,47,48,49,50,54,58,59,62,65,66,70,71,73,75,76,78,80,85,86,87,91,92,99,100,106,108,110,111,116,117,118,120,121,123,124,126,127,128,129,130,132,134,136,138,141},
{1,5,9,10,12,13,19,21,29,30,36,37,38,39,41,42,46,48,49,51,52,54,57,59,60,61,64,68,71,72,73,75,76,78,80,81,82,84,85,86,89,95,97,99,101,105,107,110,112,115,116,120,121,122,123,124,126,127,130,132,133,134,140},
{5,9,10,13,20,22,27,31,38,39,41,43,44,45,46,49,52,54,58,68,69,70,72,73,75,76,81,83,84,88,90,91,94,101,102,103,105,107,108,110,114,116,119,120,121,123,124,125,128,129,130,131,133,135,136,138},
{9,11,13,20,24,25,26,29,33,40,41,49,50,53,55,56,62,67,70,71,72,74,77,78,80,84,86,88,89,92,95,97,100,101,102,103,104,107,109,114,117,118,122,123,125,128,130,131,132,134,136,137},
{1,3,4,5,6,11,12,18,23,25,26,29,31,32,35,39,40,41,42,43,45,47,48,50,53,54,55,57,59,60,61,62,64,68,70,74,76,77,79,83,84,90,91,92,95,96,97,106,108,111,115,121,122,124,126,127,128,131,132,135,137,140,141,142,144,146,148,149,150,152,154,156,158},
{1,4,5,7,10,16,19,22,29,32,42,47,48,49,54,55,57,58,59,60,63,66,68,72,73,77,78,80,81,82,91,92,95,97,98,99,103,104,105,107,111,112,114,115,118,119,120,123,127,128,131,134,138,139,140,142,145,146,149,150,152,153,155,157,162},
{2,3,4,5,7,9,12,14,20,21,23,25,27,29,30,31,32,34,36,39,41,42,45,46,47,51,64,65,67,71,75,76,80,81,83,86,87,89,91,92,93,96,97,100,104,105,107,108,110,113,115,116,120,121,125,131,132,133,135,142,143,144,151,152,155,156,161,162},
{1,6,9,18,21,24,25,28,31,32,33,34,36,37,38,39,43,44,48,51,54,55,56,57,60,64,67,69,73,74,75,78,79,80,81,90,92,103,110,112,114,115,120,121,122,124,125,126,127,128,132,134,135,137,144,145,146,147,149,150,151,153,156,158,159,160,161},
{2,4,5,16,18,20,23,27,29,31,32,35,36,43,46,53,54,61,63,64,65,67,69,71,75,78,79,80,82,84,86,92,93,95,96,98,100,107,110,111,113,114,115,116,118,120,122,123,125,128,131,133,134,137,148,149,153,155,157,158,163,164},
{4,6,8,12,13,14,18,20,21,22,24,28,30,31,36,38,40,43,46,50,55,64,66,74,78,80,83,85,89,92,93,94,97,101,103,106,108,110,114,116,119,124,126,129,130,131,135,138,144,148,152,153,159,161,163,164},
{2,3,9,10,12,13,17,18,20,22,23,27,29,30,32,34,37,38,40,42,45,47,49,51,60,61,62,63,67,70,73,74,76,77,78,80,82,83,89,94,96,99,104,107,108,111,114,116,125,128,129,132,136,137,138,142,143,144,145,146,147,151,155,156,159,160,161,163},
{1,3,4,6,9,12,16,18,21,22,27,31,32,34,35,37,40,49,51,52,54,56,59,61,63,65,66,67,73,78,82,83,87,88,92,93,95,96,97,103,105,106,109,112,113,114,117,119,122,123,129,130,131,137,140,147,149,156,157,160,161,162},
{4,8,10,11,12,15,16,17,25,29,30,32,35,37,38,40,42,43,45,49,51,56,63,64,68,72,75,79,81,83,84,88,90,93,95,98,100,101,102,103,105,110,113,117,118,120,126,128,129,131,132,134,135,137,140,146,147,150,152,155,157,159},
{1,7,8,9,10,12,13,17,19,22,24,26,27,30,31,33,36,39,40,41,42,48,50,52,53,56,59,61,62,63,64,65,66,67,71,76,77,78,79,81,82,84,87,88,89,90,94,95,96,99,100,101,103,105,106,111,114,118,122,124,127,130,131,135,136,137,138,139,140,141,146,148,149,154,155,156,158,159,164},
{2,3,5,10,11,13,14,19,21,24,25,28,33,35,39,41,46,49,51,52,54,55,56,57,59,62,63,68,72,73,77,80,81,84,86,88,90,91,93,94,96,105,106,107,108,109,119,123,125,128,129,131,133,135,138,140,141,147,148,149,151,153,154,155,161},
{1,4,5,9,12,21,25,30,32,33,36,38,39,45,51,52,55,57,61,64,66,68,71,75,80,81,83,84,85,86,90,93,94,100,101,103,110,112,114,115,116,120,126,128,130,131,135,146,147,148,152,155,157},
{1,5,8,9,10,15,16,20,23,25,29,33,39,40,48,51,52,62,64,65,67,69,70,72,73,74,82,85,86,88,91,98,100,101,102,104,105,107,115,123,124,125,130,132,138,139,140,141,143,145,146,147,148,153,156,157,158,161,163},
{1,4,9,17,21,22,23,26,27,31,33,38,39,41,45,52,53,54,55,56,62,64,67,68,70,74,76,84,90,94,95,96,98,99,100,106,109,112,113,114,120,123,124,127,136,137,138,146,147,148,152,153,154,159},
{1,2,7,9,13,14,15,20,24,27,30,35,36,37,47,48,49,51,54,56,57,60,61,62,63,65,66,67,70,74,75,76,77,78,80,82,87,89,90,91,93,94,97,99,110,113,116,118,120,121,122,124,128,129,131,135,138,140,142,147,152,153,154,160,161,162,163,164},
{7,9,10,12,13,14,16,18,25,30,32,35,38,41,43,44,47,49,51,56,57,60,62,65,66,68,69,72,75,76,80,81,85,86,89,91,92,96,97,98,99,100,102,103,104,109,115,118,119,121,127,129,131,134,135,136,141,148,149,154,156,162},
{1,4,6,9,10,16,17,18,27,30,31,32,34,35,36,37,38,40,42,45,48,49,50,52,53,56,58,59,60,61,62,63,65,68,73,75,76,79,80,82,83,85,88,90,92,96,98,101,102,108,109,110,111,114,121,122,123,124,125,127,129,130,131,138,140,145,146,147,149,151,154,157,159,163,164},
{1,3,4,5,9,11,12,14,17,18,20,21,22,23,24,25,26,27,28,30,33,34,39,41,43,44,46,48,50,53,57,59,63,65,66,71,72,73,76,77,78,79,82,91,93,95,97,98,99,102,104,109,112,115,117,119,120,123,124,125,132,134,135,137,140,145,149,154,156,157,159,160,162},
{2,4,7,8,11,19,24,29,34,35,38,40,41,44,46,48,49,50,51,53,56,58,60,63,66,68,72,74,77,78,81,83,87,92,93,94,95,96,101,104,105,106,110,115,116,118,120,126,127,128,129,131,133,136,140,147,148,150,152,153,154,155,156,158,159,160,163,164},
{4,6,10,11,14,19,23,25,26,27,35,36,38,42,43,44,48,49,52,56,58,59,60,62,65,69,71,74,76,79,80,81,82,85,88,93,94,98,104,105,110,111,112,115,116,117,122,124,125,128,130,131,132,137,140,141,142,143,144,145,148,150,151,155,157,160,161,163,164},
{1,3,5,10,12,13,17,20,24,25,27,28,31,32,33,34,35,36,38,39,40,41,42,44,45,47,48,49,55,57,62,63,64,66,67,71,72,73,76,77,81,83,87,88,96,101,105,106,112,118,120,122,124,125,126,127,129,130,134,138,145,147,148,150,151,153,154,156,157,159,160,162,164},
{3,7,8,9,11,12,16,18,19,21,22,23,26,28,30,31,33,41,44,45,47,51,52,55,56,58,60,62,65,73,82,85,87,88,89,92,94,96,98,99,101,102,103,104,107,108,109,110,111,112,115,118,122,124,126,127,130,134,136,138,139,148,149,153,154,158,160},
{5,12,17,20,22,24,26,27,29,30,32,33,36,38,39,43,47,49,50,52,54,55,58,60,64,65,66,67,68,70,71,79,81,82,84,85,90,92,94,97,98,100,102,105,106,108,109,110,111,112,115,118,120,121,126,130,131,132,133,135,137,141,142,147,150,154,156,159,163,164},
{6,8,10,14,16,19,22,23,27,29,30,34,35,38,39,40,41,46,48,53,57,64,66,71,78,81,83,84,90,91,92,93,98,100,103,109,113,115,116,117,118,122,127,129,130,131,134,137,139,140,142,146,147,149,151,154,155,156,157,159,160,161,163,165,167,169,173,174,175,177,178,184,187},
{1,2,4,5,8,9,10,11,15,16,19,20,21,22,24,25,26,27,29,34,36,45,46,47,48,49,54,59,61,64,66,69,70,71,74,77,80,82,84,85,86,89,90,92,93,95,101,103,104,107,108,109,111,112,115,117,118,122,124,125,127,128,129,134,135,136,143,144,145,147,149,150,151,152,154,156,160,161,163,164,166,167,169,172,173,174,175,176,177,179,182,183,186,187},
{5,6,10,11,12,13,14,15,17,19,20,22,23,28,29,30,31,33,36,37,38,39,41,42,44,48,49,53,56,59,60,73,76,80,82,83,84,85,88,89,90,93,96,100,102,106,111,113,115,122,123,126,128,129,130,131,136,142,143,144,145,148,151,155,160,163,164,166,169,172,175,179,180,184,185},
{2,3,5,6,20,22,25,26,31,32,33,35,38,39,41,46,47,48,50,54,57,59,61,63,66,67,68,74,75,76,78,80,82,84,87,88,91,95,99,101,102,103,107,110,111,117,118,121,123,124,126,129,130,132,135,136,141,143,145,147,151,153,154,155,160,161,162,166,168,169,172,174,177,179,184,185,187},
{9,11,12,13,14,16,17,20,21,22,23,26,27,29,31,33,34,36,39,40,42,43,48,51,52,54,55,56,59,60,61,66,68,69,70,71,74,76,77,80,82,83,84,86,90,94,95,99,101,102,103,104,108,111,116,121,122,124,127,131,132,134,137,138,142,145,147,148,150,151,153,155,156,157,160,161,165,171,176,180,181,183,186,187},
{1,2,3,4,8,15,19,20,22,25,27,28,29,32,34,38,41,45,47,48,49,51,55,57,63,66,67,70,72,74,75,77,79,80,81,83,85,93,100,102,105,111,116,118,122,123,126,127,128,130,136,139,141,142,145,147,149,152,155,156,158,162,164,167,169,178,183,186,187},
{1,4,5,6,7,14,17,18,19,24,25,27,28,29,30,31,36,37,44,45,47,49,55,56,59,60,61,63,66,67,68,69,72,77,88,89,91,95,96,97,99,102,106,107,108,109,112,113,115,118,120,125,129,130,132,136,137,139,141,143,147,149,150,152,155,156,158,160,161,164,168,171,175,176,177,181,184,185,186,187},
{7,10,12,16,18,20,23,25,29,31,41,48,49,50,51,53,54,57,59,62,64,66,67,71,75,80,82,83,86,87,89,100,101,106,108,116,117,119,121,124,127,128,133,134,138,140,142,144,145,150,151,153,154,158,160,162,163,169,172,175,182,184},
{1,2,4,7,15,23,24,25,27,29,30,35,36,43,47,48,52,54,55,58,62,66,69,70,74,77,81,86,91,92,93,94,95,99,100,104,106,108,109,110,111,115,116,119,120,122,127,128,129,136,137,138,139,140,141,144,146,147,148,149,156,170,173,176,177,178,184,185,186,187},
{3,5,8,10,12,13,15,16,17,18,19,21,24,27,28,29,30,33,34,35,36,37,40,41,43,46,48,49,50,52,56,58,59,60,61,66,67,69,70,71,72,73,77,81,87,91,93,95,96,99,100,101,102,105,106,108,111,113,116,118,121,125,126,127,131,133,136,137,139,141,143,145,146,151,152,155,156,160,161,162,163,165,167,169,170,172,173,174,175,177,185},
{3,6,7,8,9,12,13,15,16,17,22,23,25,29,32,33,38,39,40,41,46,47,51,53,59,60,61,62,66,67,68,69,70,72,78,80,82,84,85,87,90,93,95,96,97,99,101,104,105,106,107,111,112,113,115,122,123,126,127,128,130,133,134,136,138,139,140,143,145,147,149,151,156,158,161,164,167,168,170,171,176,181,182,184,186,187},
{1,3,10,16,17,20,21,23,26,30,34,37,38,39,42,43,46,47,48,49,50,51,56,60,61,62,66,68,69,70,76,78,79,82,83,84,87,88,90,91,93,95,96,103,104,105,107,110,111,115,117,118,120,122,123,126,128,129,130,132,134,135,136,141,145,146,149,150,154,155,158,161,166,171,172,175,179,180,181,183},
{3,5,9,10,14,17,18,19,20,24,28,31,37,39,40,41,44,46,47,49,52,57,58,60,63,65,69,73,75,77,78,83,84,88,90,91,92,93,96,99,103,108,109,111,113,115,118,120,125,127,128,130,132,133,138,141,142,144,145,148,157,159,160,161,162,163,168,171,174,175,176,179},
{1,5,7,10,11,17,18,20,21,23,24,25,27,30,32,34,35,37,38,43,44,51,58,61,63,67,68,70,73,75,76,80,83,88,89,91,95,96,98,99,106,107,109,110,112,121,123,124,125,126,127,133,135,137,138,139,143,146,148,150,152,153,154,155,160,161,162,163,165,169,170,171,174,175,177,181,182,185,187},
{2,6,10,12,13,16,24,27,32,34,35,37,40,47,49,52,53,54,55,56,57,59,60,64,67,70,71,73,74,75,82,85,87,93,94,95,98,101,102,103,105,109,110,111,116,117,121,124,125,126,128,129,130,131,135,140,141,143,144,146,149,151,153,154,155,157,159,163,165,169,170,173,174,176,182,186},
{1,5,7,8,9,10,13,15,19,20,21,23,25,26,27,32,34,36,37,39,41,42,44,45,47,48,57,60,61,64,66,68,71,72,74,80,82,83,87,89,91,92,94,95,105,109,110,111,112,117,122,124,125,129,130,131,137,140,144,145,146,147,152,153,156,157,160,165,172,178,181,182,184,185,186,187},
{1,6,8,9,10,12,16,17,18,19,22,23,24,27,31,32,33,34,37,38,39,43,51,53,54,56,59,60,61,62,71,75,76,77,78,79,80,81,84,90,91,92,95,98,99,103,106,112,121,122,124,130,137,138,139,140,142,145,149,154,155,157,160,166,167,168,169,172,174,175,182,184,185,186},
{3,9,12,16,20,23,24,25,27,28,29,32,35,36,37,38,39,42,47,51,55,58,62,68,69,71,73,74,77,79,80,81,82,83,89,90,92,96,99,100,105,107,109,110,112,113,114,118,119,120,121,123,125,126,127,128,131,134,135,136,140,141,142,147,148,156,157,158,161,162,164,168,170,172,173,178,180,182,185,187},
{2,4,12,15,18,20,22,23,25,28,32,34,35,37,38,40,41,50,52,53,55,56,57,62,64,65,69,70,71,72,77,79,80,86,87,90,91,96,98,101,104,105,106,110,114,115,116,118,121,122,123,124,125,126,133,135,142,146,147,153,154,155,159,161,168,170,180,182,185,186,187},
{1,5,10,12,13,15,16,17,18,26,27,30,31,32,34,35,36,40,42,49,51,54,55,56,57,59,60,62,64,65,73,74,77,78,79,84,89,90,93,94,97,99,105,106,107,109,116,119,125,126,132,133,135,136,142,143,144,145,147,149,155,158,161,163,164,167,169,170,174,176,177,179,182,185,187},
{2,8,10,11,12,13,15,18,23,27,30,34,35,42,43,44,45,46,47,52,55,56,57,58,59,67,72,80,85,87,88,91,95,98,103,104,105,111,112,114,116,125,127,128,129,130,134,135,136,137,143,144,147,148,149,150,152,154,156,157,158,160,161,162,163,165,168,171,172,175,177,178,185,186,187},
{6,7,9,11,12,13,16,17,24,25,27,28,29,30,36,39,41,43,44,53,60,61,64,67,68,69,70,72,76,79,83,86,90,91,92,94,96,98,99,100,101,107,109,111,112,119,120,122,126,127,128,130,131,135,138,139,145,146,149,151,152,154,155,157,158,159,162,164,165,166,167,171,172,173,175,176,185,187},
{1,2,5,6,8,9,10,13,19,21,22,23,24,29,30,33,35,36,44,45,46,49,53,58,60,61,63,67,69,74,75,76,80,83,86,89,90,92,94,95,96,99,101,106,107,108,109,111,112,115,118,120,121,122,123,124,125,126,130,135,137,140,144,148,153,154,156,157,164,167,170,172,174,175,178,179,184,185,187},
{2,5,7,10,17,18,20,21,22,25,30,32,33,36,45,47,49,51,53,56,59,61,63,65,69,72,85,87,91,97,100,103,105,106,107,110,120,121,122,124,126,128,129,130,131,132,133,134,138,143,147,151,153,154,155,156,158,159,160,163,164,165,168,171,173,174,175,178,182,184,185,187},
{2,3,4,8,9,14,18,20,21,22,32,33,35,36,43,44,45,46,53,57,58,61,62,63,65,66,67,68,69,72,75,79,81,84,86,89,91,96,97,98,100,101,102,105,107,108,109,114,116,117,118,119,120,121,122,124,125,126,130,132,133,134,135,140,143,153,155,158,160,161,163,164,169,170,172,174,175,180,181,183,184,187,192,193,194,196,198,200,203,205,210,211},
{3,4,5,6,7,11,12,20,22,26,27,31,34,36,39,40,41,45,48,50,51,53,54,55,59,60,61,64,68,70,71,72,77,78,80,87,89,91,92,95,99,100,103,104,106,108,112,116,120,130,139,143,144,147,148,149,150,152,154,155,159,162,164,165,167,171,172,174,175,179,180,182,186,187,190,191,192,195,197,199,200,201,203,205,207,209},
{5,10,14,15,19,20,21,22,25,28,29,33,34,35,36,39,41,42,51,56,58,61,64,65,68,71,72,73,80,83,86,87,89,92,93,94,95,96,97,102,107,109,110,116,119,125,131,132,133,135,140,144,145,146,153,154,158,159,164,166,168,173,174,178,179,181,182,185,187,188,191,196,198,202,203,208,209,210,211},
{1,2,3,6,7,9,10,12,15,17,25,26,27,28,30,31,40,41,44,46,47,48,50,52,53,55,56,58,59,62,65,67,71,72,75,76,79,84,86,89,90,92,95,97,98,102,105,108,114,117,120,124,128,129,131,135,137,140,142,144,145,149,151,154,155,156,158,159,160,161,164,165,167,168,169,174,175,176,178,182,184,186,190,191,192,193,195,197,198,199,203,207,210,211},
{1,4,6,9,11,13,19,20,26,30,34,38,40,41,45,47,49,50,52,53,54,62,63,67,70,72,77,78,79,82,84,86,88,89,91,92,93,94,102,103,105,106,107,110,113,118,127,129,132,133,134,135,139,141,148,151,154,157,158,159,168,169,170,173,174,175,177,180,183,191,195,196,197,198,202,206,207,208,209,211},
{3,4,6,13,15,20,23,29,30,33,42,44,47,48,49,50,51,52,54,55,56,57,58,61,64,68,70,72,78,82,83,84,87,91,95,96,99,101,102,103,105,106,110,112,113,115,116,117,121,124,125,126,128,129,130,131,132,133,134,135,141,143,144,145,147,148,150,152,154,155,157,162,163,170,171,172,174,175,177,179,180,184,191,193,194,196,198,200,203,204,206,207,210,211},
{2,4,5,9,11,12,14,15,17,19,20,21,26,31,34,37,38,45,49,50,52,55,57,58,60,62,63,64,65,67,68,69,70,73,74,78,79,83,85,88,89,92,94,95,97,99,101,105,106,109,111,114,120,121,131,135,136,138,140,141,142,143,145,148,154,155,156,157,159,173,175,177,181,184,186,191,194,195,198,200,201,207},
{2,4,6,11,12,14,15,16,17,20,26,27,28,36,37,38,42,44,45,46,48,52,53,57,58,59,61,65,67,68,71,72,78,82,83,88,91,96,99,102,104,106,109,111,113,115,119,120,121,122,123,125,134,136,140,141,143,146,148,150,152,155,158,163,164,172,173,174,181,183,184,190,191,192,195,196,198,199,200,202,206,208,211},
{2,11,15,17,18,21,23,25,26,28,30,33,35,36,44,46,47,50,54,56,57,63,65,66,67,70,71,72,73,74,75,76,77,78,80,81,83,85,88,92,94,97,98,102,103,107,108,111,112,118,120,122,125,127,129,130,133,135,136,142,143,148,149,151,156,157,158,159,165,167,169,170,172,174,179,181,182,193,194,199,205,208,209,210},
{1,4,7,8,10,11,12,15,16,17,18,25,34,35,36,38,39,43,44,45,46,48,55,57,59,62,64,65,68,71,73,74,78,80,82,83,87,88,92,94,98,100,103,104,105,109,113,115,117,118,119,120,123,124,125,126,127,128,129,131,133,136,138,139,152,154,156,170,174,176,180,182,183,185,187,191,192,200,205,206,207,208},
{5,6,7,8,11,13,16,21,23,26,29,31,43,45,47,51,53,66,67,69,71,72,76,78,79,80,83,85,87,89,90,91,92,93,97,99,100,104,108,109,110,113,116,118,122,123,124,125,126,128,131,133,134,139,144,145,148,150,153,155,158,160,163,167,171,173,180,183,184,186,190,191,197,200,204,207,208},
{2,4,6,8,9,10,16,21,22,23,27,31,32,33,37,40,41,42,43,45,46,48,50,51,52,58,60,63,64,65,66,67,68,70,71,72,76,77,78,85,97,98,100,101,105,108,109,112,115,117,118,120,122,123,124,130,133,134,137,138,139,146,150,152,153,162,165,171,172,175,176,177,178,183,184,185,186,191,195,199,200,202,203,206,207,209},
{1,3,4,6,10,11,17,18,20,22,24,27,28,33,34,35,36,38,46,47,51,53,56,59,61,67,68,69,71,72,73,74,75,78,82,83,84,85,87,88,90,94,96,99,104,105,106,107,110,113,115,119,123,125,129,130,131,135,136,137,138,139,141,146,148,149,158,162,168,172,173,176,178,185,187,189,197,204,208,210},
{1,3,4,9,10,12,14,17,26,27,28,39,40,41,44,48,50,53,58,64,70,76,78,81,86,87,95,99,102,105,107,108,109,111,112,118,119,120,125,127,128,129,133,134,136,140,141,143,147,151,152,153,157,158,164,165,166,167,169,171,175,177,178,179,182,184,186,188,190,192,193,198,200,203,204,208,209,210},
{5,7,10,12,16,20,26,29,32,33,35,36,37,38,39,40,42,44,47,49,51,54,57,61,63,64,65,72,73,76,77,79,81,85,86,87,92,93,95,97,99,107,118,120,121,122,125,128,131,132,134,137,138,140,141,142,144,145,146,147,148,150,152,153,155,156,159,160,161,163,166,169,174,175,176,179,180,184,185,188,194,196,197,200,202,204,205},
{9,11,16,18,26,27,29,30,31,34,36,39,40,41,44,45,48,49,51,58,64,67,76,77,78,81,83,84,86,88,92,93,97,100,116,118,119,123,132,133,138,139,142,143,144,147,150,152,154,158,163,166,168,169,170,172,178,179,180,187,189,190,191,193,199,201,209,210},
{2,4,7,8,11,13,15,17,18,20,22,24,26,28,29,30,31,33,37,38,42,43,44,52,54,55,61,63,64,65,66,72,75,80,85,87,93,94,96,100,103,104,107,108,109,112,120,123,124,126,129,133,135,136,137,138,140,146,149,150,155,156,157,166,167,168,171,176,179,180,181,183,184,186,188,190,193,194,196,199,202,204,205,206,207},
{5,13,16,17,18,19,20,22,24,25,28,29,31,32,35,37,39,43,44,45,48,50,51,52,53,54,56,58,60,64,65,68,75,76,77,82,83,88,92,98,99,101,103,105,106,110,111,114,116,119,120,121,122,125,127,128,130,132,134,142,148,155,158,159,161,165,169,171,173,175,182,186,187,191,192,193,194,199,200,201,202,206,207,210,211},
{1,2,6,13,14,15,18,20,22,23,24,25,27,28,30,40,41,44,45,49,53,56,57,60,61,62,63,64,65,66,67,68,69,70,73,74,77,78,79,80,86,90,92,94,95,96,99,101,103,105,111,114,118,121,122,123,124,125,126,127,130,132,133,135,136,137,138,139,140,142,148,152,154,156,158,160,163,165,169,170,172,174,175,176,182,189,193,194,195,197,198,201,203,206},
{2,6,9,12,15,16,19,22,31,34,35,36,37,38,39,40,43,48,50,53,54,59,63,64,67,69,71,78,80,83,85,89,91,92,94,95,96,99,100,101,104,106,107,109,112,116,124,125,129,132,133,135,136,137,140,141,142,143,147,150,152,155,156,159,161,162,166,167,168,175,176,178,179,182,184,185,186,188,190,197,198,200,205,210,211},
{3,8,15,16,22,23,24,29,35,36,39,40,44,45,48,51,53,55,57,58,64,70,72,74,77,78,79,82,86,87,91,98,103,106,114,115,117,118,124,128,130,133,136,137,138,140,141,142,144,153,157,160,161,163,165,166,168,174,182,189,192,193,199,203,204,206,208,211},
{2,10,13,21,22,23,24,31,32,34,39,43,48,49,52,54,56,60,62,65,68,69,71,74,78,79,80,85,87,88,90,93,94,96,97,104,106,108,114,122,128,129,131,138,140,141,143,144,147,151,152,154,155,159,160,164,167,172,176,179,180,185,186,189,192,193,202,204,206,208,211},
{4,5,10,11,13,15,16,20,24,26,27,29,32,37,43,45,46,49,52,58,59,61,66,67,68,70,79,81,83,87,90,96,98,100,102,104,110,112,113,117,121,123,124,128,129,132,137,138,141,144,145,146,149,150,156,158,161,163,166,167,168,171,173,174,179,182,185,186,187,188,189,195,201,202,203,206,208,210},
{6,8,13,14,17,18,21,23,24,25,29,32,33,36,45,46,49,58,59,63,72,73,80,85,86,88,91,92,98,108,111,113,117,118,120,122,129,131,142,145,146,148,149,150,152,154,155,157,159,161,165,166,169,179,183,188,191,192,195,199,205,206,208,209,210,212,213,214,217,220,223,224,227,232},
{1,2,3,4,6,9,11,14,16,20,21,25,29,31,37,38,40,43,44,46,48,49,51,53,58,60,65,69,71,75,76,77,78,79,81,84,86,87,88,91,93,97,99,100,102,104,106,109,114,120,121,123,130,131,135,136,138,139,146,147,150,153,154,156,158,159,165,167,169,173,176,177,179,187,189,191,193,202,203,205,208,209,212,213,214,215,216,217,219,221,224,225,226,228,231},
{2,4,5,7,15,16,18,19,25,28,36,37,39,40,43,46,49,51,57,61,62,63,66,68,70,76,83,85,88,89,90,91,94,97,98,101,102,104,106,107,108,113,115,117,122,123,126,127,132,134,135,136,137,138,144,146,147,148,150,153,154,158,159,161,168,170,174,175,177,185,186,187,189,193,196,197,200,202,205,206,208,218,222,223,224,225,226,228,230,231,232},
{1,4,6,10,13,15,20,23,25,26,28,30,31,32,38,43,44,46,47,48,53,54,55,57,59,60,64,65,68,73,75,76,77,81,82,84,85,87,89,96,97,100,101,102,103,104,107,108,109,110,112,114,117,118,119,121,123,128,129,131,133,135,136,138,139,141,143,149,150,155,159,160,162,167,177,178,179,183,187,188,189,190,192,193,204,206,211,212,213,214,217,218,219,220,223,224,225,227,228},
{2,5,7,11,12,14,16,28,30,32,33,34,35,38,39,44,45,46,47,51,56,57,59,63,66,67,69,70,72,77,78,82,84,86,87,90,97,98,104,105,108,111,112,113,114,116,117,118,119,120,122,123,128,129,130,133,137,140,141,145,150,153,155,158,160,162,165,167,168,171,172,175,176,180,181,184,186,188,190,191,192,193,194,195,196,199,200,201,203,204,205,207,213,215,217,219,220,221,224,226,227,233},
{1,5,7,8,11,24,27,28,32,36,37,40,48,49,53,54,55,56,57,58,61,65,66,67,73,77,81,82,84,85,87,90,92,93,95,99,101,102,104,108,109,110,111,112,114,116,117,119,120,128,129,131,132,138,140,142,143,146,148,156,157,161,164,167,168,171,172,174,177,179,180,182,184,185,190,198,200,203,204,207,211,212,213,216,220,223,225,227,228,230,231},
{4,11,18,19,22,24,26,28,29,31,32,33,36,39,40,43,49,51,53,54,55,56,57,58,62,64,72,73,75,78,80,82,83,85,88,90,91,92,95,96,99,100,104,108,109,111,112,113,115,116,121,125,127,128,133,134,135,137,138,141,142,143,146,151,153,155,157,160,162,163,164,166,168,171,173,175,177,184,187,188,189,190,191,194,198,200,203,205,206,207,208,209,211,212,215,219,227,230,231,234},
{4,9,12,14,15,20,21,22,25,30,31,32,35,37,38,39,40,41,43,45,46,47,48,51,52,55,59,63,67,68,69,70,74,75,76,78,80,81,82,83,87,88,91,92,95,98,100,101,104,108,113,117,119,122,123,126,128,129,130,132,135,140,144,146,147,148,149,150,152,153,160,161,165,169,176,178,180,182,184,186,187,188,191,193,194,195,196,198,199,200,202,208,209,212,214,215,218,225,228,229,231,232,234},
{9,10,11,16,18,19,21,23,24,26,32,37,38,39,40,41,45,48,50,52,54,60,62,63,66,68,70,71,73,76,77,78,81,89,94,95,97,98,99,100,103,105,106,107,108,109,111,115,117,119,121,123,124,127,128,131,132,136,140,141,146,147,151,153,155,157,161,164,165,168,169,171,172,173,175,176,178,183,186,187,189,190,191,197,203,204,212,213,214,215,217,219,220,221,222,224,226,228,229,230,231,234},
{1,4,7,9,12,13,15,16,20,21,25,26,30,35,36,39,49,51,52,56,57,60,64,65,66,67,68,69,70,73,74,76,77,81,82,85,86,93,96,97,101,102,104,105,106,107,109,111,112,116,119,131,133,137,140,150,156,160,161,167,169,170,173,182,183,184,192,193,194,198,201,206,207,208,210,211,223,227,232,234},
{1,3,4,5,7,11,16,17,19,20,22,23,30,31,39,41,42,43,44,45,48,52,53,56,57,60,61,65,67,69,71,77,82,83,86,87,88,91,92,94,97,98,110,111,112,113,115,116,117,118,119,120,121,126,128,130,133,134,135,139,141,143,146,147,148,151,155,157,158,160,161,162,168,170,172,175,176,188,189,190,197,198,200,203,207,210,213,216,217,218,219,221,222,224,232,233,234},
{1,2,4,5,6,9,11,17,18,19,25,28,35,37,38,39,40,41,50,51,52,54,55,56,61,63,65,70,71,72,74,77,78,79,80,82,83,84,90,95,97,99,101,104,106,107,108,109,110,114,117,120,122,124,125,128,132,133,134,138,141,142,152,154,156,158,159,161,162,164,165,168,169,172,173,174,179,184,186,189,190,192,200,202,203,205,209,210,213,216,217,218,219,220,222,223,224,228,231,232,233},
{1,5,6,12,13,20,21,22,24,26,28,33,34,36,37,41,47,48,49,52,53,56,57,60,61,63,64,66,71,75,78,83,85,87,88,90,92,95,96,98,100,103,104,107,109,111,113,114,115,116,117,118,119,123,126,127,133,134,136,138,139,140,142,143,147,153,156,161,164,165,166,170,173,175,176,177,178,179,180,185,186,187,189,190,191,192,194,195,196,198,206,208,214,216,218,219,223,224,225,226,228,232,233},
{3,9,12,14,16,20,21,25,26,28,29,30,31,34,40,41,45,49,52,53,54,58,62,66,67,68,69,70,71,72,76,77,80,81,82,85,94,96,97,98,105,106,108,111,114,115,120,126,131,136,138,139,141,142,146,149,152,153,155,158,160,161,162,165,166,169,170,172,175,176,177,179,180,184,185,187,188,190,194,199,202,203,208,212,216,217,220,221,226,232},
{2,4,7,10,14,16,17,19,20,25,28,29,30,31,32,33,37,38,39,45,47,48,52,53,55,63,65,66,69,72,73,80,85,86,87,88,89,91,92,96,97,99,102,103,106,107,108,109,110,111,113,114,120,121,124,127,130,131,132,136,139,141,142,144,145,146,151,157,159,160,165,171,174,175,180,182,184,185,186,188,189,190,194,196,198,199,200,201,205,209,212,214,216,218,223,224,225,227,229,232,234},
{3,7,9,12,18,19,23,24,26,27,28,29,34,37,38,49,52,55,56,59,60,77,81,83,84,87,88,89,91,92,98,102,106,108,109,111,115,117,121,122,124,125,128,129,130,132,138,139,140,142,143,145,148,153,159,161,163,165,167,168,171,173,175,177,178,180,182,185,188,189,192,193,195,200,204,205,207,208,211,214,216,217,218,220,221,222,224,227,228,233,234},
{6,7,10,12,14,19,20,24,26,27,37,38,39,40,41,44,47,49,50,58,59,61,62,63,70,71,73,75,77,79,80,82,84,86,88,90,91,92,93,96,102,106,107,109,111,113,114,115,117,120,122,124,129,130,131,132,140,142,143,145,146,148,149,150,157,158,159,161,168,172,178,179,184,186,188,189,191,194,196,199,201,204,207,208,212,213,221,222,224,228,229,233,234},
{1,5,7,9,14,18,21,23,24,28,32,33,34,35,38,39,40,47,48,49,54,56,60,61,63,66,77,82,83,84,85,91,96,98,103,104,106,107,110,111,117,122,123,124,127,130,133,134,135,139,140,144,145,148,149,150,151,152,153,159,165,166,167,168,176,181,182,186,187,188,189,190,191,197,201,203,208,211,216,223,225,227,229,230,234},
{4,6,11,12,13,15,18,19,20,21,22,25,26,29,33,34,37,38,42,52,55,57,61,63,65,67,69,70,72,73,74,76,77,81,87,92,93,98,101,102,104,106,107,112,113,115,117,120,121,125,129,130,132,135,136,138,140,141,146,147,148,150,151,156,157,158,160,162,171,174,184,186,187,188,189,190,192,194,197,199,201,202,203,204,211,212,213,215,216,218,220,226,227,228,230,234},
{1,3,4,6,10,11,12,13,17,18,19,22,26,27,31,32,34,41,46,48,49,52,53,57,58,62,66,71,72,74,75,83,89,92,93,97,98,101,102,103,104,106,107,110,112,113,114,116,117,118,119,121,124,127,128,130,133,135,140,141,143,144,145,146,147,151,152,153,155,157,158,161,167,168,171,173,178,179,180,188,190,192,193,196,197,198,199,203,205,206,211,215,221,222,224,225,227,231,232},
{5,9,12,13,17,18,19,20,21,22,25,27,28,29,31,33,34,35,38,39,40,43,48,56,58,66,67,69,71,73,75,76,77,78,79,88,90,95,99,100,103,104,106,108,109,113,115,118,121,123,124,125,126,128,129,130,131,132,139,141,143,147,148,149,150,153,154,157,159,160,161,162,167,170,173,174,175,176,179,181,184,185,186,187,189,193,197,204,205,206,212,213,214,216,220,222,223,225,227,229,230,231,232,234},
{1,9,10,16,18,20,28,31,32,35,39,40,41,48,49,50,64,65,67,69,72,74,76,77,80,82,83,87,89,90,92,94,95,96,98,100,101,102,105,106,108,110,111,114,115,116,117,120,122,125,126,127,128,129,134,136,145,147,151,152,155,158,163,165,166,169,172,176,177,178,179,181,183,185,186,188,197,198,202,206,207,209,210,214,216,220,221,222,225,227,230,232,233,234},
{5,9,13,16,20,23,24,25,30,31,35,36,37,38,42,43,47,52,53,54,55,58,61,64,65,67,74,76,79,80,81,85,88,91,92,99,106,110,111,112,116,121,123,124,125,129,134,137,143,148,149,151,157,161,162,163,165,175,176,180,182,183,184,186,191,198,199,200,201,210,212,214,216,217,218,219,220,222,227,230,233},
{4,5,6,8,9,13,14,15,17,21,25,26,27,29,31,34,36,39,40,43,45,46,47,49,50,51,54,61,64,66,67,69,70,72,74,75,77,83,87,88,90,93,95,97,103,104,105,108,110,116,117,121,126,127,129,130,132,133,136,138,140,146,147,149,155,156,161,162,164,167,168,170,172,174,175,180,181,182,184,185,187,188,191,194,199,200,206,207,208,209,215,216,219,220,229,230,232,234,236,237,238,239,241,244,245,246,248,254,255},
{2,3,7,8,9,10,14,15,16,18,19,26,27,31,33,34,35,36,37,41,43,47,49,50,52,56,62,63,65,68,69,71,72,75,77,83,84,86,87,90,91,96,97,98,99,102,109,111,116,117,124,125,127,129,130,135,136,138,141,143,146,154,159,160,164,166,168,172,173,174,184,186,188,190,193,196,197,198,200,201,204,206,209,211,212,213,214,215,219,221,223,225,226,230,232,235,236,239,244,246,247,253},
{6,10,13,19,25,26,28,29,30,31,35,37,38,39,44,46,47,52,63,64,65,70,71,77,83,85,86,88,89,92,96,98,101,104,105,107,110,122,126,128,133,135,136,138,141,143,145,146,148,149,152,153,154,155,156,157,158,161,164,165,166,167,172,174,178,181,182,186,190,192,193,195,196,199,202,203,206,208,211,212,213,216,219,222,223,224,230,231,232,233,236,239,242,245,246,249,257},
{3,8,9,11,16,17,18,21,24,26,28,32,33,36,37,39,41,42,43,44,46,47,51,53,54,55,56,61,63,64,65,71,73,77,78,80,81,83,84,85,90,94,95,99,100,102,105,107,108,109,114,115,116,126,139,142,143,145,147,148,153,154,156,158,168,173,175,176,177,178,181,182,185,186,187,188,191,193,195,196,197,199,201,203,207,209,212,213,214,216,217,218,221,222,223,225,226,227,230,235,236,240,241,242,245,246,247,251,256,257},
{1,2,3,8,12,13,15,22,26,35,37,40,41,44,47,56,58,60,61,62,65,68,69,71,72,73,79,81,83,86,87,90,92,93,94,97,98,100,103,104,108,112,117,120,121,124,125,128,129,133,136,144,145,146,154,156,157,160,162,164,165,168,170,172,173,174,175,176,179,180,184,185,188,196,198,199,202,203,204,205,206,209,211,215,216,218,219,221,224,243,244,247,251,252,256},
{1,3,8,10,12,13,15,16,17,18,20,23,24,25,26,28,29,34,35,38,39,43,45,47,48,49,50,51,53,58,59,61,62,69,77,85,89,92,94,95,96,97,107,109,112,115,116,119,121,123,124,125,126,147,151,155,158,161,167,168,173,174,176,178,179,180,182,183,185,186,188,191,192,193,194,195,196,198,201,202,204,206,208,214,216,222,226,227,233,235,236,240,241,244,245,248,249,250,251,254,255},
{1,2,8,10,12,13,14,15,18,23,25,28,30,31,34,36,38,40,41,43,46,49,51,52,53,55,59,64,69,72,78,81,83,87,92,95,99,106,108,109,110,115,121,126,127,133,134,135,138,139,140,141,142,150,151,152,153,156,157,158,161,162,167,174,179,182,184,185,188,194,197,199,201,203,205,206,212,216,218,226,229,230,232,234,235,238,239,241,242,243,244,246,249,252,254,256},
{2,4,8,9,10,11,15,17,19,22,28,29,39,42,45,47,48,53,60,61,62,65,68,69,75,89,91,92,96,99,100,102,106,107,108,109,110,113,117,119,124,126,128,129,130,131,134,135,136,137,138,139,141,143,147,149,151,152,157,158,159,160,161,163,172,173,176,178,179,181,183,184,189,195,197,200,202,203,206,208,210,216,219,220,222,223,225,227,231,232,236,237,243,246,247,249,250,253,256,257},
{4,6,7,9,11,12,15,18,19,20,25,26,28,29,30,35,37,41,42,44,48,50,51,52,54,61,69,71,79,81,86,87,92,94,95,96,97,99,100,102,103,111,112,115,121,124,126,127,130,132,136,138,140,142,144,145,146,147,152,156,159,160,165,172,177,179,180,182,186,193,196,198,199,204,208,209,210,212,215,216,222,227,228,232,239,243,246,247,250,251,253},
{1,2,4,6,11,12,14,16,17,25,27,30,31,32,35,36,40,41,44,47,48,52,54,55,56,62,64,65,67,68,69,70,72,74,75,77,78,80,81,82,88,89,91,92,94,95,99,101,103,104,107,108,109,110,113,114,122,123,125,126,127,131,133,134,135,136,142,146,147,150,154,155,158,161,165,168,171,174,179,186,188,189,190,192,197,199,200,203,206,209,210,217,218,220,221,222,224,225,227,228,229,231,232,235,240,248,250,255,256,257},
{1,5,14,19,20,22,23,24,33,35,37,38,42,43,46,48,49,52,53,54,55,59,60,63,66,70,72,77,79,82,86,87,89,90,93,95,97,99,100,106,107,111,114,115,116,117,120,121,122,123,124,130,132,133,134,136,140,142,143,147,148,149,151,158,159,165,169,172,174,179,181,183,184,185,186,188,189,193,194,195,196,200,203,206,207,209,210,212,213,216,218,219,226,227,230,231,233,235,237,238,239,241,243,247,249,250,256,257},
{2,4,6,10,11,14,19,20,23,26,29,30,33,35,40,43,44,45,46,48,51,52,54,55,56,57,59,62,66,69,71,72,73,74,76,78,80,83,86,88,91,92,95,101,103,105,106,113,115,116,118,120,121,122,123,125,131,135,139,141,148,149,151,153,154,155,156,159,161,164,165,167,168,169,170,172,173,176,177,179,183,185,191,192,193,195,198,202,206,210,213,216,217,219,220,223,233,236,238,246,247,248,249,251,254,255,257},
{1,2,3,4,6,8,9,12,16,17,18,19,24,26,28,29,34,35,38,42,47,50,53,55,57,58,60,61,62,63,70,73,74,75,77,78,79,83,85,89,92,93,95,96,98,101,102,104,108,110,115,116,117,118,122,126,128,131,132,138,140,142,143,144,145,146,147,148,151,152,155,159,160,162,163,164,165,166,168,174,177,178,179,180,181,185,186,187,188,191,193,194,196,198,200,201,202,210,215,216,217,220,221,223,224,225,229,233,236,240,244,246,249,250,251,255,257},
{3,5,9,13,21,25,27,30,31,32,33,35,38,39,44,48,51,53,56,57,58,59,62,65,69,75,76,78,79,82,85,86,87,88,91,99,100,102,104,108,111,115,116,119,120,121,122,126,130,132,133,136,137,139,143,145,147,148,149,150,152,154,156,158,159,163,164,167,168,169,172,173,176,177,180,186,189,192,193,194,195,196,204,206,207,209,212,214,223,225,226,227,228,229,230,231,238,241,242,244,249,251,252,253,256},
{2,8,10,11,18,21,22,25,32,34,35,37,39,42,44,46,48,50,52,53,54,61,62,63,70,74,76,78,80,84,88,90,92,96,102,103,107,108,111,112,114,119,122,125,128,129,132,133,134,137,139,140,142,145,150,157,161,163,164,165,166,169,173,174,175,177,180,185,188,193,196,197,201,202,203,205,207,211,213,217,218,219,225,226,228,232,234,236,237,238,240,241,242,244,246,247,249,251,252,253,255,257},
{2,5,7,9,16,17,18,21,23,24,25,26,29,30,34,37,43,44,48,50,52,54,55,56,59,60,61,62,63,64,65,68,72,77,86,88,89,92,94,97,98,99,104,106,110,117,119,121,123,124,125,129,132,135,138,140,141,146,150,151,153,155,156,157,160,161,163,165,170,171,178,180,181,186,191,193,199,200,201,202,204,207,209,210,215,218,220,222,223,224,226,228,232,233,235,236,238,239,240,241,244,246,247,250,252,253,255},
{4,5,11,12,14,15,16,21,22,25,26,29,34,36,40,41,42,43,44,45,46,52,57,59,60,61,65,68,70,72,73,75,77,80,81,84,86,87,90,92,93,94,100,104,105,106,110,112,113,118,120,122,124,125,131,134,140,145,146,147,150,156,158,166,167,168,169,176,179,182,186,190,191,193,196,201,212,215,216,220,222,228,229,231,237,239,240,242,243,245,246,252,253,256},
{3,7,8,11,12,18,24,26,27,29,32,39,41,42,46,48,49,52,54,56,58,64,65,66,67,70,74,79,80,81,85,87,88,97,99,102,108,109,112,113,119,121,123,128,137,139,140,141,142,143,144,152,153,155,159,164,166,167,168,171,173,176,177,184,186,189,193,196,198,201,203,204,205,209,211,217,218,222,226,230,231,234,236,238,239,240,242,244,246,248,255,257},
{3,4,6,7,9,10,15,19,20,21,23,24,29,30,31,32,36,38,41,44,46,50,51,53,55,57,58,59,62,64,65,67,68,69,70,71,73,74,75,78,83,85,88,92,93,94,101,104,109,110,112,114,116,117,120,121,123,126,127,138,140,144,148,154,155,156,157,160,163,166,170,171,174,176,178,181,183,185,188,189,192,195,198,201,209,210,217,218,220,222,223,226,229,230,231,232,233,235,236,237,238,240,248,249,250,253,256,257},
{2,7,8,9,10,12,14,18,19,20,24,25,38,44,46,49,50,51,53,55,56,58,60,61,64,66,68,71,73,77,80,81,85,86,89,90,93,98,99,101,105,110,112,118,120,125,127,128,129,133,134,138,141,142,143,145,148,151,152,155,156,164,165,166,168,169,171,172,174,175,176,188,190,194,198,200,202,206,207,212,214,215,221,222,223,225,227,228,229,231,233,235,237,241,243,244,245,249,255},
{2,4,5,6,8,10,11,14,15,20,22,23,28,33,36,37,39,40,41,43,47,54,56,62,63,65,68,72,73,75,76,81,82,83,84,85,90,91,93,94,95,104,105,108,109,113,116,117,119,121,122,123,124,125,131,132,138,140,145,146,152,154,155,157,159,160,162,165,166,167,170,171,172,174,175,179,181,182,183,185,187,189,190,192,194,200,204,212,213,218,220,221,222,224,225,226,229,230,232,235,238,239,240,241,242,246,248,250,256},
{3,6,8,13,18,21,22,26,29,33,36,39,41,48,52,53,55,62,64,65,67,68,69,76,95,98,99,106,107,111,114,115,117,118,124,125,131,132,136,138,140,142,144,148,150,155,156,157,159,160,161,163,165,168,172,175,176,177,178,179,185,186,187,193,194,200,201,203,206,210,213,215,216,222,231,236,237,238,241,243,245,246,249,252,256},
{3,7,10,11,12,14,17,18,20,21,26,27,28,30,32,37,39,41,42,43,44,45,46,47,53,56,61,67,68,70,75,78,85,86,92,97,98,100,109,110,112,115,117,121,123,135,137,138,140,144,146,149,150,151,158,162,164,166,168,171,177,180,182,185,189,192,193,200,201,202,204,206,208,209,210,212,214,215,217,222,224,225,226,237,240,241,244,247,250,251,252,255,256},
{2,4,5,8,10,14,21,23,24,32,33,34,35,38,39,40,43,44,45,46,47,48,49,50,52,53,55,57,59,65,69,74,75,80,81,82,86,89,90,95,98,103,109,110,111,122,126,127,130,136,140,143,144,145,146,147,149,152,153,154,156,159,161,162,163,164,166,168,171,172,174,175,177,178,179,181,183,186,187,189,190,192,193,194,200,202,205,209,211,212,217,218,219,222,227,228,233,235,236,242,244,247,248,250,251,252,254,255,257,263,267,268,271,272,273,275,277},
{1,4,5,7,8,10,11,14,19,21,22,28,38,42,44,46,49,51,54,56,57,60,65,66,67,68,70,86,88,92,93,97,103,106,108,109,113,114,116,118,119,121,124,129,130,133,134,135,149,152,155,156,160,162,167,168,170,171,173,175,176,177,178,179,184,185,186,194,199,201,202,203,207,211,212,213,215,223,224,227,228,229,231,232,238,239,242,244,246,247,248,250,252,257,262,264,266,269,272,273,276,280},
{1,3,7,11,12,13,14,15,17,18,21,22,23,24,28,32,41,44,46,47,48,49,52,55,56,57,58,64,67,69,71,73,77,78,79,81,82,83,85,86,88,90,93,105,112,115,116,120,121,122,128,129,133,136,141,142,143,147,148,149,151,158,163,164,166,167,170,173,174,177,179,185,186,190,193,194,196,200,201,203,204,207,208,209,211,212,216,220,222,223,225,230,239,240,241,243,244,245,249,252,254,255,256,258,260,261,264,266,268,271,274,278},
{1,4,5,9,11,12,16,17,19,20,21,27,28,29,30,31,37,41,45,46,47,50,51,55,56,57,59,62,66,71,72,73,74,76,77,78,79,83,86,91,94,95,96,101,102,104,111,112,113,115,118,120,121,125,126,127,128,129,130,135,137,139,141,143,144,147,150,154,156,157,158,160,161,163,164,169,174,175,177,178,179,180,182,191,194,195,196,197,198,200,201,202,203,205,206,210,214,216,217,218,220,224,227,232,234,237,238,240,243,246,247,250,251,252,254,256,259,261,268,269,270,271,278,279},
{1,6,7,8,9,10,13,16,17,18,19,23,25,26,27,28,30,33,35,37,38,39,41,50,52,55,58,59,63,64,66,70,75,76,78,82,84,86,88,90,91,92,100,102,103,104,106,107,109,110,113,116,117,118,119,121,123,128,130,131,138,142,143,148,149,153,154,158,159,160,168,169,172,176,180,183,185,187,189,190,193,194,196,197,198,199,202,203,204,213,215,217,218,222,223,224,226,227,230,232,233,234,236,238,239,243,247,251,262,264,267,268,271,272},
{1,3,4,7,8,14,16,17,18,22,23,27,28,30,33,34,35,36,38,39,40,41,42,46,53,54,55,60,61,62,66,67,68,71,72,73,74,76,77,79,86,88,93,95,98,101,105,106,107,108,111,112,114,125,127,129,130,135,141,142,145,147,148,156,159,162,163,164,167,171,172,173,174,178,179,182,184,187,190,192,193,194,196,198,203,205,206,213,214,219,221,224,226,229,235,236,237,238,249,250,251,252,253,257,259,262,263,266,274,277},
{1,8,9,10,11,13,15,17,24,35,38,39,40,41,42,43,44,45,47,50,52,54,55,56,62,65,66,67,70,72,74,76,79,80,84,88,90,91,94,96,97,99,101,102,104,107,108,109,111,112,113,114,115,120,121,128,129,133,135,139,151,155,157,160,171,180,181,182,187,190,193,195,198,200,201,202,204,210,211,216,223,224,226,227,228,232,234,236,238,239,241,243,251,258,262,263,267,270,272,279,280},
{3,4,6,7,9,13,18,20,21,24,25,34,40,42,44,45,51,54,56,57,63,64,65,68,71,72,75,78,80,83,87,89,91,92,94,96,97,99,102,103,104,105,106,107,109,113,121,128,129,130,131,133,134,135,136,138,139,140,142,143,144,145,146,147,149,151,152,153,157,159,165,167,168,170,171,173,174,175,177,179,180,183,187,190,193,194,195,198,202,203,205,206,215,219,220,223,226,228,232,235,237,239,243,244,247,248,249,256,258,263,265,266,267,271,272,273,274,276,277,279},
{3,9,10,11,13,14,18,21,22,23,26,27,28,29,33,35,38,40,47,50,52,53,55,58,61,68,70,73,74,78,82,85,90,96,97,99,100,105,108,110,112,116,117,123,126,127,130,132,133,134,137,140,142,143,146,147,149,150,151,160,163,164,165,172,173,176,177,178,181,183,184,186,195,197,198,199,200,202,203,205,206,209,211,215,217,222,223,230,232,233,236,237,239,241,245,247,251,256,259,260,265,266,267,271,273,275,277,278},
{1,4,5,7,10,14,16,19,27,28,33,34,35,37,38,47,48,52,54,55,60,62,65,67,68,69,72,75,78,80,84,85,87,88,93,96,105,106,115,116,121,123,124,129,131,132,133,136,139,141,143,145,146,149,152,153,156,157,158,162,164,165,171,175,177,180,183,186,187,188,189,190,192,193,194,195,196,199,202,205,207,213,217,221,222,223,225,229,234,236,237,238,239,242,246,247,253,254,255,260,264,265,270,271,275,278},
{1,2,4,5,8,14,15,16,17,18,20,23,27,28,31,34,35,38,39,40,42,45,46,47,48,49,51,53,55,57,60,61,62,69,70,72,73,79,83,90,91,98,99,106,109,112,114,116,117,119,122,124,127,128,129,130,131,133,134,139,142,143,146,148,151,152,154,155,157,158,161,166,170,171,175,176,177,179,182,184,186,189,194,201,210,211,216,219,222,223,226,227,228,229,230,231,234,235,236,238,239,243,244,248,253,255,256,259,262,264,266,271,272,273,274,277,279},
{2,3,5,8,11,13,15,18,20,24,25,26,28,31,33,35,39,40,41,46,47,49,51,54,55,57,59,60,62,64,65,67,71,73,77,78,79,82,88,99,100,104,106,109,110,111,112,113,117,122,124,125,130,135,137,140,141,142,143,146,148,149,150,152,153,154,156,157,160,163,164,167,169,170,172,173,175,177,181,183,185,187,190,191,194,197,199,201,203,208,209,213,214,216,217,222,223,228,229,231,233,245,248,249,250,252,254,259,260,266,268,272,273,274,276,279},
{1,2,8,10,11,12,14,18,20,29,31,32,33,34,35,39,40,43,45,46,47,48,57,59,61,64,65,67,69,71,79,80,82,83,85,87,88,89,91,92,96,98,102,104,106,107,108,109,110,113,114,115,116,119,120,122,128,129,130,132,134,135,137,138,140,146,149,152,153,154,155,157,160,161,166,168,172,174,175,176,179,180,181,183,187,188,191,198,199,203,211,215,219,220,222,223,224,226,233,238,240,241,244,247,250,251,254,257,260,263,264,266,267,268,273,277},
{1,7,8,10,17,18,19,24,27,28,29,31,35,36,37,42,46,48,49,50,51,53,58,63,70,72,74,78,83,86,89,90,91,105,107,108,111,112,114,117,118,119,121,123,124,133,134,137,140,141,148,150,153,154,156,159,160,161,162,163,164,165,166,167,173,174,180,181,182,183,189,195,200,211,212,215,217,218,220,223,224,226,229,233,239,240,241,242,243,247,252,254,255,256,265,271,272,275,276,277,278},
{4,5,8,11,15,16,20,29,32,33,35,38,40,42,47,50,52,55,57,59,60,61,65,66,67,69,73,79,80,82,86,87,89,95,97,99,102,107,109,112,114,115,116,126,127,130,131,135,139,141,142,146,147,149,153,157,158,161,163,164,167,168,169,171,172,173,182,183,184,187,188,191,195,196,197,198,199,201,202,204,208,210,211,212,214,216,219,224,226,227,233,235,236,238,239,241,243,249,250,257,258,260,265,267,273,274,280},
{6,7,8,14,15,17,18,22,24,25,26,30,31,34,36,41,42,43,44,51,53,54,58,60,61,63,64,65,66,68,69,71,73,74,76,77,81,82,83,87,91,92,97,100,104,109,112,113,118,119,120,126,130,132,138,139,143,145,146,147,149,152,159,161,168,172,175,177,179,182,185,187,199,200,203,206,207,215,216,217,218,219,225,227,235,237,238,247,249,250,253,262,264,268,270,271,272,276,278},
{1,2,3,4,5,7,8,9,13,15,16,17,18,20,21,22,23,27,28,29,31,32,33,34,35,37,43,44,47,52,53,55,59,61,63,65,66,67,69,71,77,92,93,94,96,97,100,101,102,104,112,113,114,115,116,120,123,127,128,129,131,134,138,139,140,142,143,144,149,154,158,159,160,164,171,177,182,183,185,188,189,190,193,197,202,203,205,207,208,214,220,224,225,227,231,235,236,239,241,244,246,248,249,252,260,261,263,265,266,268,272,274,276},
{1,2,8,11,13,15,16,17,22,23,29,30,32,35,36,37,38,40,43,44,47,50,52,55,58,60,62,65,68,69,70,72,77,78,79,81,85,89,93,95,104,105,106,108,109,112,114,115,117,121,123,126,129,130,131,135,138,140,145,146,152,153,156,157,159,165,171,177,178,179,185,187,188,190,192,193,196,197,198,201,204,209,210,213,215,216,217,218,219,220,221,222,224,226,230,233,238,242,245,246,247,249,251,253,257,267,270,273,274,277,279,280},
{3,4,8,13,14,16,17,22,28,29,30,37,40,41,42,47,48,52,53,54,59,60,62,63,73,84,85,91,96,99,100,103,106,111,117,119,122,125,127,128,129,130,131,133,134,138,139,140,141,146,147,148,152,155,156,159,160,162,165,169,171,174,178,181,182,183,185,186,188,189,190,192,194,196,197,198,200,205,208,212,218,221,222,223,228,229,231,232,234,235,236,237,240,245,247,248,249,251,253,254,259,261,262,263,269,270,272,274,276,277},
{1,4,5,8,9,12,14,17,20,24,25,26,27,29,30,39,46,47,50,58,59,60,62,63,66,68,76,77,78,79,83,91,93,97,98,99,101,102,106,108,110,111,113,117,118,120,123,124,131,137,139,141,147,149,153,154,155,158,160,161,164,165,169,171,175,180,181,184,185,186,187,192,195,197,200,201,203,210,212,215,217,218,220,222,225,227,228,229,232,237,239,240,241,242,243,246,247,249,252,256,261,264,266,268,269,270,271,275,278,279},
{6,8,10,11,13,15,19,23,24,26,27,28,29,34,35,36,38,40,41,49,51,53,56,61,63,64,71,73,75,78,83,85,86,88,89,92,94,95,97,101,103,105,110,113,116,119,120,121,123,124,125,127,129,135,139,151,153,158,160,161,162,163,166,170,175,177,180,181,183,185,186,189,190,191,192,194,195,197,199,200,201,204,206,207,208,210,211,212,213,214,216,220,222,225,229,236,238,240,242,245,247,254,255,256,258,261,266,267,268,269,270,271,272,273,274,275},
{1,2,3,4,6,8,11,12,13,16,18,19,20,21,26,27,33,34,39,40,42,44,48,51,54,55,56,59,61,63,65,72,74,79,85,88,92,94,95,98,104,105,106,108,111,115,116,117,118,120,121,122,123,128,133,138,139,143,144,145,146,147,153,154,155,156,160,161,165,167,168,171,175,176,177,179,180,186,196,197,199,201,204,217,218,219,225,226,231,232,234,235,238,239,240,241,242,246,247,249,250,253,257,258,262,268,270,272,273,276},
{1,3,5,7,9,10,15,16,23,25,29,30,31,32,33,35,36,37,39,42,43,48,50,54,55,57,61,63,65,68,77,78,79,84,89,95,98,101,103,106,107,114,116,120,121,122,124,128,130,137,142,147,153,154,156,159,162,170,173,178,179,180,181,192,194,196,201,202,204,206,209,211,215,217,219,223,225,226,230,231,241,243,245,247,249,250,255,257,259,260,262,264,269,271,273,276,279},
{1,3,4,8,9,11,13,15,16,17,18,20,21,22,23,24,25,29,33,34,35,37,38,43,44,46,51,54,56,57,64,65,68,69,70,71,73,78,84,85,86,87,89,94,99,100,101,102,103,112,116,118,119,121,122,123,126,127,128,130,131,136,138,140,145,148,149,150,151,152,153,157,158,159,161,164,165,170,174,175,178,179,180,186,196,197,198,205,207,209,211,213,214,217,218,222,223,224,226,227,230,231,232,238,239,241,243,244,248,249,252,256,258,260,262,264,268,269,271,273,275,278,279},
{1,5,6,9,11,14,19,24,27,33,35,36,42,46,50,52,53,54,57,61,64,65,67,68,70,75,78,79,80,82,83,85,93,95,97,103,108,110,116,122,124,125,126,127,129,130,131,132,136,138,141,143,144,146,149,152,153,154,155,158,160,170,171,172,173,177,179,183,185,187,189,190,192,193,196,199,207,209,210,219,226,231,233,235,236,238,240,243,245,247,248,252,253,256,258,262,266,267,272,274,276,279,282,285,286,287,288,289,291,293,298,300,301,303},
{1,3,6,10,14,15,17,20,21,24,28,31,32,34,37,38,42,43,46,48,51,53,54,57,58,59,60,62,63,68,71,72,73,75,78,81,83,84,88,93,94,99,100,102,105,106,109,111,115,117,119,123,126,127,130,131,132,135,136,140,141,142,150,153,157,160,162,164,170,173,179,183,184,185,187,188,192,194,195,200,202,208,210,211,212,214,218,219,222,224,225,230,232,236,239,242,243,244,247,248,250,253,257,259,260,261,264,265,271,274,275,277,279,280,281,284,289,290,293,294,295,296,301},
{2,6,8,15,20,24,31,32,33,38,39,40,42,45,47,52,53,55,56,58,60,64,67,68,75,76,78,81,85,86,90,91,92,93,96,97,100,109,110,112,115,116,117,119,125,129,132,133,134,139,141,142,145,146,152,157,159,160,162,163,165,166,167,168,179,181,183,185,186,192,197,200,202,208,210,211,214,215,216,220,221,227,229,230,233,236,241,242,244,247,249,254,255,256,257,260,263,265,266,267,269,272,276,280,284,285,286,288,289,290,294,295,298,299,300,302,304},
{2,8,10,11,12,14,15,18,19,22,25,28,30,31,33,35,36,38,39,41,44,46,48,49,52,59,60,63,65,66,68,74,86,88,90,94,96,97,99,100,101,104,107,111,112,118,122,124,128,129,132,137,138,139,143,144,145,148,151,154,155,157,158,161,162,168,175,178,184,186,187,192,193,194,195,205,208,209,212,213,216,220,221,222,224,225,226,231,238,243,251,253,255,256,258,259,264,275,277,279,280,281,282,283,286,290,294,297,298,300,302},
{2,5,7,9,12,17,18,24,25,27,29,30,32,34,36,38,41,46,48,49,52,55,56,58,59,60,67,69,70,74,85,86,87,89,90,95,102,110,111,112,113,115,123,127,131,136,141,142,143,144,145,150,152,156,160,163,164,165,167,171,172,173,175,181,190,191,192,195,198,200,203,204,205,207,208,211,212,214,216,218,220,225,228,231,232,235,241,245,247,250,251,252,253,255,258,261,263,266,267,269,272,279,283,285,289,291,293,295,299,302},
{1,2,7,9,11,15,18,21,25,26,28,30,31,35,36,50,51,53,56,57,64,66,67,71,72,73,76,78,83,84,86,88,89,90,95,97,101,102,103,106,107,108,111,112,114,117,119,120,121,129,131,133,134,137,138,141,149,153,155,156,157,159,169,179,182,189,191,199,209,212,220,221,225,228,229,233,239,242,243,244,245,252,253,255,257,261,262,264,265,266,267,270,271,273,274,280,281,282,286,287,289,291,292,297,300,301},
{1,4,5,7,10,11,18,25,26,31,34,36,37,38,44,45,46,49,51,63,67,69,72,73,77,78,81,82,83,85,86,87,92,93,94,95,99,102,104,106,107,108,109,111,118,120,121,124,125,129,131,135,139,142,145,151,154,157,160,162,164,165,166,167,169,174,176,177,179,182,183,184,188,191,193,195,196,202,206,211,212,213,215,217,223,224,234,236,237,239,240,242,244,245,246,248,251,254,256,257,260,261,264,270,271,272,274,276,278,285,290,291,292,300,302},
{5,6,7,9,10,12,13,21,24,29,31,37,38,39,40,41,42,44,49,50,51,54,57,58,62,64,69,71,73,74,77,78,79,83,84,85,87,88,89,90,91,92,94,101,104,107,114,116,118,120,122,125,126,127,128,129,132,134,135,136,143,145,146,147,148,153,155,156,158,159,162,163,165,166,168,169,172,173,174,179,180,185,187,189,190,191,192,193,196,198,199,200,202,206,209,212,216,217,220,224,230,231,236,243,245,250,254,255,256,257,258,259,260,261,262,263,264,269,270,272,273,274,275,280,281,285,286,288,289,293,294,295,296,297,300,301,303},
{2,5,11,12,13,15,18,25,29,30,42,49,50,53,55,58,59,60,61,62,63,64,65,67,69,71,74,80,82,83,86,87,92,94,95,96,98,101,103,104,105,106,107,109,110,111,118,121,122,125,131,146,148,149,151,154,157,158,161,168,170,172,179,182,184,186,189,190,193,195,196,197,201,203,204,206,207,209,210,212,214,216,217,220,222,224,226,231,232,246,247,249,252,253,257,259,260,265,266,267,270,272,273,274,281,284,286,293,294,300,301,304},
{8,11,15,20,21,22,26,29,32,35,37,40,41,42,45,47,49,56,57,58,59,62,66,67,69,70,72,74,76,81,83,84,87,88,89,91,92,98,99,100,101,103,104,105,108,113,114,116,117,120,121,122,124,127,128,129,130,133,135,138,139,140,141,146,150,151,152,153,156,158,162,167,168,169,172,173,175,176,180,182,183,188,189,190,191,193,203,205,208,211,215,218,219,222,224,226,231,232,234,237,238,242,243,245,248,249,250,252,260,265,271,275,276,278,283,286,289,290,291,292,299,301,303},
{1,2,8,10,13,15,19,20,21,27,30,32,34,36,37,38,42,54,58,59,60,61,64,66,67,68,71,72,73,77,82,86,89,91,92,93,95,98,101,102,105,109,112,113,115,119,120,126,128,129,130,132,134,142,144,146,147,151,154,158,159,162,166,168,171,174,176,177,179,182,183,184,186,188,189,196,203,204,209,210,211,214,215,216,217,218,220,221,222,223,226,227,228,229,230,237,238,243,249,250,252,260,261,262,266,267,273,274,277,279,281,283,284,285,286,289,291,294,296,297,301,304},
{2,3,7,10,11,15,16,17,19,21,25,27,30,32,34,35,40,44,47,52,53,54,62,66,71,74,75,83,84,85,86,88,90,91,96,97,104,105,106,108,112,113,116,120,123,125,127,130,131,134,135,140,141,149,151,156,159,165,168,169,171,173,174,177,178,186,189,196,198,199,200,203,205,208,210,214,216,217,222,223,224,228,231,232,233,234,235,240,243,244,246,248,255,257,259,260,261,264,265,270,272,276,278,279,280,281,284,285,289,290,293,294,295,297,298,300,301,304},
{10,14,18,20,24,25,30,33,34,35,36,38,39,43,44,47,52,55,57,58,60,61,63,67,68,69,73,76,79,80,82,85,88,91,92,93,94,96,97,98,104,106,107,110,112,114,117,122,123,126,128,130,131,138,139,141,143,145,147,149,153,155,156,158,167,168,170,171,172,173,174,182,184,186,187,189,191,192,194,198,199,200,204,205,209,211,215,218,219,220,221,224,228,229,230,233,236,237,239,243,248,249,255,256,258,260,263,264,267,268,269,271,272,273,274,276,278,279,280,285,286,288,291,297,301,303},
{4,5,6,11,13,15,16,17,21,25,27,28,29,30,31,39,40,42,48,49,50,53,57,61,64,66,73,77,78,79,81,83,88,94,99,100,103,104,107,114,117,118,120,122,126,127,128,129,130,131,132,135,136,139,140,141,143,144,146,148,150,152,154,156,159,165,166,169,170,177,182,183,184,187,193,196,198,199,200,201,202,203,207,208,209,213,215,216,217,219,229,233,235,237,238,239,242,245,248,251,254,256,257,259,261,268,270,273,276,277,279,284,286,287,288,289,290,293,295,298,299},
{1,2,3,4,5,8,10,12,13,15,16,17,18,19,23,25,28,31,32,33,34,37,38,40,41,43,45,46,54,57,58,62,63,65,67,69,72,73,75,78,82,84,85,86,87,90,91,93,94,97,98,102,106,109,111,112,114,116,117,120,121,122,124,125,126,127,130,131,135,136,139,141,144,145,149,150,151,155,156,159,160,163,165,167,168,171,175,181,183,185,187,190,191,196,199,203,204,205,206,215,216,220,225,227,229,231,240,241,250,253,254,256,257,261,263,264,266,272,276,287,288,289,291,293,296,298,299,300,301,302},
{2,3,7,9,14,22,23,26,27,28,38,42,46,49,55,56,59,60,61,63,64,66,68,69,73,78,79,84,86,91,93,94,97,99,100,106,108,109,112,113,114,116,120,123,126,128,131,133,137,140,143,148,151,153,156,164,170,172,174,175,176,177,178,179,181,182,183,190,194,197,198,200,202,203,205,208,209,211,215,216,217,218,219,220,231,235,238,240,245,247,249,250,251,252,253,254,266,267,269,274,279,280,283,289,291,292,297,301,302},
{4,6,7,9,21,24,25,28,29,30,33,37,38,39,41,42,45,50,52,53,55,56,57,59,63,64,66,70,71,72,73,76,77,79,81,83,84,88,91,92,94,102,104,107,108,109,110,112,115,122,125,130,134,135,138,141,142,143,144,145,147,148,149,150,151,152,156,158,159,162,164,166,167,171,174,176,178,179,182,184,185,190,192,193,198,199,200,206,208,211,212,213,217,218,220,221,225,229,230,234,235,237,238,239,240,243,245,246,247,248,249,251,263,267,268,269,271,273,274,278,279,282,285,286,287,294,297,299,300,302},
{1,2,5,12,17,18,19,21,24,27,29,32,33,34,35,37,38,41,46,47,49,50,52,53,57,59,61,62,63,65,69,70,72,73,75,76,77,78,80,81,83,88,89,94,98,101,102,103,104,106,107,108,109,111,112,118,122,123,124,126,128,129,130,134,137,141,142,143,147,148,149,152,157,161,164,166,169,173,175,179,182,184,185,187,188,191,192,195,200,204,205,206,208,209,210,211,213,216,220,222,224,225,226,229,231,233,237,239,240,242,247,249,251,252,253,254,258,262,264,265,266,271,272,274,275,278,282,284,289,291,292,298,299,300,303,304},
{4,5,7,10,14,15,25,26,28,29,30,31,33,34,35,38,40,42,43,44,46,47,48,49,50,56,59,61,63,64,67,68,71,72,75,77,78,80,83,92,93,94,95,96,98,100,101,106,112,115,116,122,128,131,135,136,137,145,152,153,157,160,161,162,168,172,174,179,181,190,195,199,202,204,208,219,220,223,224,225,226,234,238,239,241,243,247,248,250,252,254,255,256,258,259,261,264,267,268,270,271,273,276,279,281,282,283,284,288,290,294,295,298,301},
{3,4,11,15,18,19,20,26,29,32,34,35,37,38,41,43,46,47,48,53,55,57,58,61,63,64,66,68,73,77,78,82,84,85,90,91,93,95,104,105,106,109,110,123,126,129,130,131,135,136,142,143,144,155,156,158,159,160,163,164,165,168,172,175,177,181,182,187,188,191,195,197,198,203,206,211,214,218,219,224,225,231,233,234,236,237,242,244,247,250,264,265,266,267,268,270,272,273,276,280,282,283,285,288,293,295,299},
{3,5,7,9,11,13,19,23,28,34,36,38,39,41,43,48,53,56,57,61,63,64,65,67,70,72,75,76,79,80,81,82,84,87,89,93,94,97,101,102,105,107,112,114,118,119,121,124,125,130,131,134,135,140,144,145,148,149,151,154,155,156,157,158,159,160,161,163,166,167,168,170,175,177,178,181,183,184,186,187,189,190,191,193,194,198,201,203,208,210,211,214,216,218,219,223,224,228,239,243,244,245,246,253,254,255,258,260,261,263,266,269,272,274,277,278,285,287,288,289,291,294,295,296,297,299,301,303},
{1,2,3,6,8,9,12,17,18,20,23,29,30,31,32,33,35,36,41,47,50,52,55,63,65,69,70,71,73,76,78,79,80,81,82,84,90,94,99,101,102,103,106,109,110,111,113,118,129,130,131,133,135,138,139,153,154,157,164,165,171,172,175,176,179,180,181,182,185,186,187,189,192,193,195,196,197,198,200,201,202,208,210,211,213,214,215,216,217,218,220,221,225,226,228,229,231,233,235,238,239,242,246,249,252,253,257,258,261,264,268,275,276,278,279,281,282,283,285,286,289,292,294,297,298},
{4,5,8,13,17,19,21,23,24,25,27,29,30,33,36,40,43,45,47,51,53,55,58,65,67,68,70,71,78,83,84,85,86,87,88,90,91,94,95,96,97,98,101,105,106,107,112,119,121,122,128,129,132,136,138,140,141,142,145,147,149,150,154,156,157,158,159,160,161,163,166,169,170,171,173,176,177,181,183,186,188,190,192,194,195,196,201,206,207,208,213,216,219,229,230,232,233,236,237,242,247,255,256,257,258,259,260,262,263,264,269,270,272,274,275,279,280,281,284,287,290,297,300,301,302},
{1,3,4,5,6,7,9,15,17,18,27,28,30,32,34,36,37,44,45,46,47,49,50,53,56,58,61,62,63,66,68,72,74,75,81,84,86,88,89,93,94,95,96,97,98,101,102,103,104,105,106,107,109,118,123,124,133,134,135,136,138,139,140,142,143,144,145,147,154,157,161,163,164,169,170,173,175,179,184,186,187,189,190,191,192,193,196,197,199,201,205,206,207,208,210,212,216,218,221,223,234,235,236,238,245,249,251,252,258,261,262,267,270,272,274,278,283,284,287,288,289,297,298,303,304,305,309,312,315,318,321,322,324,326,327},
{1,5,7,14,15,16,17,19,22,24,25,28,29,30,35,42,43,44,45,47,49,54,57,58,59,74,80,85,89,90,95,98,101,103,104,108,110,112,117,121,122,123,128,130,139,140,141,142,143,145,153,154,156,157,160,161,166,169,171,177,178,181,183,184,185,188,189,191,194,196,200,201,202,203,204,208,209,210,211,212,214,218,222,223,227,228,229,234,238,242,243,254,255,263,267,270,271,274,275,277,284,286,287,289,291,294,296,299,301,302,303,304,305,308,311,312,313,315,320,326},
{3,6,7,10,11,14,16,18,21,23,28,29,36,38,39,44,50,51,54,60,73,76,79,80,81,82,90,92,94,96,97,98,101,105,110,113,118,121,126,132,141,142,144,145,148,149,150,151,153,155,156,158,160,166,167,169,173,174,176,178,182,184,186,192,194,196,198,203,209,211,214,218,219,226,229,230,231,233,234,235,242,243,244,248,251,253,257,260,262,264,267,269,270,271,272,274,276,277,283,285,286,289,293,298,301,304,305,306,307,308,311,312,314,316,318,324,327},
{3,5,6,8,13,15,17,20,23,27,28,32,37,39,41,45,47,48,50,54,57,59,61,68,74,76,77,81,83,84,85,86,88,90,98,102,105,106,107,111,113,119,121,129,131,133,135,139,141,143,144,145,146,148,151,153,155,157,163,166,167,168,170,171,173,174,176,177,178,182,184,185,186,187,190,194,202,204,205,209,210,211,216,219,221,224,225,226,229,231,233,236,240,244,245,247,250,253,258,262,263,264,265,266,267,268,270,271,275,276,278,285,288,290,294,296,297,301,302,306,307,310,312,313,318,319,322,323},
{1,4,6,8,9,11,13,14,15,16,22,23,24,28,29,32,35,36,41,42,44,48,49,55,66,67,72,80,84,85,86,89,90,95,101,102,103,105,107,108,109,110,113,114,117,118,120,121,123,124,127,142,143,153,158,160,161,163,164,171,173,174,175,176,177,178,183,188,192,193,195,196,197,204,208,210,212,215,217,218,219,221,223,226,229,230,231,233,234,235,236,237,240,247,248,249,250,252,255,256,257,260,266,268,270,278,279,281,284,288,289,291,293,298,299,300,302,303,304,306,313,316,318,319,320,325},
{1,4,5,6,8,10,14,18,22,24,29,35,36,37,41,53,54,55,60,62,63,64,68,70,77,79,80,82,83,84,86,88,94,95,96,99,104,105,112,116,118,119,123,125,127,128,130,132,133,137,138,139,141,142,144,146,151,154,155,156,157,158,159,160,166,168,170,171,173,174,178,181,183,184,187,188,189,196,197,199,201,202,208,210,216,219,224,226,227,228,229,232,233,236,238,239,240,244,247,249,251,252,253,256,259,260,264,268,269,271,272,278,281,282,283,284,285,290,292,294,295,296,297,299,301,303,306,308,309,310,311,312,313,317,318,319,320,322,325,327},
{5,7,8,11,13,17,18,19,21,24,25,31,32,34,35,38,39,42,43,46,49,50,51,52,55,58,60,63,64,69,71,72,75,77,78,80,82,84,86,87,89,91,92,94,98,104,105,107,108,109,112,119,126,135,137,138,139,141,142,143,147,148,149,164,166,168,169,172,173,176,183,184,186,188,190,191,194,195,198,201,204,206,207,209,212,213,214,216,218,219,220,225,226,228,229,230,235,236,237,238,243,244,245,246,248,249,252,253,254,257,258,259,260,261,262,266,268,272,273,276,281,284,285,287,288,291,292,293,294,298,300,301,303,313,318,323,325,326,327},
{1,5,11,12,19,20,30,31,32,33,34,37,40,42,46,47,49,50,52,55,57,60,61,62,64,65,69,76,78,79,81,82,85,86,89,93,96,99,101,106,108,109,111,112,113,118,121,122,123,133,135,136,139,144,145,146,147,150,151,152,155,157,159,160,161,162,163,165,166,171,178,181,183,185,187,191,195,196,197,199,200,204,206,208,209,211,212,214,215,219,224,230,232,233,234,235,241,243,244,245,248,249,254,255,256,259,261,262,263,265,269,273,274,275,277,279,281,286,289,290,296,297,298,306,307,308,310,311,312,315,316,317,319,321,323,327},
{2,3,5,6,7,8,9,11,14,17,19,20,22,24,25,27,30,33,37,42,47,48,55,58,59,61,66,67,68,69,71,73,75,76,80,82,89,92,97,101,102,103,109,113,114,115,117,118,119,122,125,128,129,130,134,138,144,145,146,147,149,159,165,167,168,175,176,178,181,184,185,188,189,194,196,198,200,201,204,206,207,208,210,211,213,215,219,220,222,224,225,229,231,232,234,235,236,242,244,246,248,251,255,264,265,267,268,270,274,276,277,278,280,284,285,288,289,301,302,303,307,309,311,313,314,321,325},
{1,5,6,7,10,13,16,17,22,23,24,27,32,37,39,41,54,56,57,61,65,67,68,69,71,74,75,77,84,85,86,87,88,91,92,95,96,97,98,106,108,109,113,117,122,123,126,132,137,139,140,141,142,144,146,151,154,156,160,164,165,169,175,177,178,179,181,182,183,185,189,192,194,196,200,201,203,204,207,208,209,211,214,223,225,226,228,229,237,239,243,244,246,248,252,253,254,255,265,266,267,270,272,273,274,275,279,283,287,288,289,291,296,298,299,302,306,309,310,312,313,314,316,321,322,324,326},
{5,6,11,13,15,17,31,32,33,35,37,46,47,50,53,54,59,60,62,64,72,80,86,87,89,90,91,92,93,95,96,98,99,106,107,108,109,111,113,115,121,130,131,132,135,136,138,141,142,147,148,150,152,154,156,157,159,160,162,165,169,175,179,180,181,182,183,186,188,190,195,197,199,201,202,203,211,212,217,218,219,220,222,225,227,231,232,233,235,240,242,243,245,247,253,257,258,259,261,262,264,265,267,269,273,274,281,283,286,288,289,291,293,295,296,299,300,301,310,313,315,316,321,323,326,327},
{3,6,7,8,11,12,14,16,19,20,23,24,25,26,30,34,35,37,38,40,41,45,47,50,52,54,61,62,63,64,66,69,72,76,77,82,83,85,86,89,90,92,93,94,95,97,98,103,105,108,109,110,111,113,115,119,124,128,129,131,134,135,137,141,145,146,150,152,153,154,164,166,169,170,173,175,176,178,182,184,185,186,193,196,199,202,205,206,207,209,213,215,216,217,219,221,227,228,230,232,236,237,241,242,243,244,245,246,247,248,249,251,254,256,258,260,261,262,268,270,273,275,279,280,281,282,283,285,286,289,290,297,299,301,304,306,308,309,310,311,314,315,316,319,320,321,322,327},
{1,5,6,8,9,11,18,22,27,29,33,36,37,46,50,51,55,57,59,60,62,63,67,69,74,78,81,86,88,90,94,96,97,101,103,105,112,113,114,115,116,118,119,122,124,125,132,133,136,137,140,141,143,147,156,157,159,165,168,170,172,173,174,175,177,178,180,184,185,186,191,192,197,202,204,212,213,215,220,222,226,230,232,248,250,251,252,253,256,257,260,261,264,268,269,274,276,277,280,281,283,285,286,293,296,297,299,300,302,306,309,312,313,320,322,326},
{1,4,5,7,9,10,13,14,22,23,24,30,32,40,47,49,55,57,60,61,64,67,68,76,77,78,81,82,83,85,88,92,97,98,99,101,102,103,104,110,121,124,126,127,129,131,138,139,142,143,144,148,149,150,156,160,162,163,166,171,176,179,182,185,186,191,193,195,197,198,199,200,205,209,210,212,214,216,218,220,221,222,230,231,232,234,236,241,242,245,250,255,256,257,259,260,265,266,267,268,272,273,275,276,277,278,285,286,287,289,290,292,293,295,296,298,301,303,304,309,310,313,314,315,319,324,326},
{3,4,12,13,15,18,20,23,24,27,28,29,35,37,40,41,43,46,49,50,52,53,55,58,60,62,63,67,70,71,76,77,78,79,80,83,84,86,99,101,102,103,108,109,110,115,118,120,122,127,128,129,133,140,143,144,145,146,147,148,150,151,152,153,155,158,160,164,166,167,171,173,180,182,183,184,187,188,192,193,194,197,198,200,204,205,207,214,216,218,220,221,222,226,229,230,232,233,237,238,239,242,245,246,248,249,250,257,259,261,262,263,266,268,271,275,277,284,288,291,292,297,298,299,301,303,304,308,309,312,315,317,320,324,325},
{4,5,7,15,17,20,23,27,28,29,36,37,38,39,40,42,43,44,45,47,49,53,57,61,66,67,68,70,72,73,76,77,81,82,84,85,87,88,95,98,99,103,104,107,108,109,112,117,119,120,122,124,125,129,131,132,133,136,137,141,145,149,152,154,159,160,161,162,165,167,171,172,176,177,181,182,190,193,197,198,202,203,204,205,206,210,211,215,218,221,222,223,224,230,232,233,235,238,241,242,243,245,247,249,250,252,253,254,255,258,261,264,267,268,269,270,271,273,275,276,278,280,281,282,287,288,294,295,298,304,307,308,313,316,317,327},
{5,10,16,18,19,20,21,23,29,30,31,35,36,37,39,43,45,46,48,51,55,56,57,58,60,61,62,67,69,70,72,81,85,86,87,89,94,99,100,104,105,106,107,108,110,114,115,118,121,123,124,128,130,131,133,135,136,138,139,144,146,148,151,152,154,160,164,165,169,170,171,172,173,177,182,185,186,188,191,194,196,197,198,202,205,209,211,215,216,218,220,221,222,225,229,234,237,241,244,247,253,255,258,259,260,266,268,273,275,276,277,281,282,286,288,291,296,297,299,300,301,302,304,305,313,314,315,319,321,324,326,327},
{1,3,5,6,7,8,10,11,15,17,19,21,22,23,25,26,28,30,31,34,37,42,44,45,47,48,54,55,56,60,62,64,66,69,71,74,81,90,92,95,96,106,108,111,115,120,123,129,134,135,139,140,150,154,155,156,158,163,164,165,167,168,169,170,181,182,189,191,193,194,195,197,199,202,205,207,210,212,213,215,216,224,226,227,229,232,238,239,241,244,248,250,257,258,259,260,262,265,266,268,270,273,275,277,280,281,282,285,290,292,300,301,302,304,307,308,311,313,316,318,319,322,325,327},
{3,5,6,7,8,9,13,14,15,17,18,22,23,28,29,35,38,40,41,43,44,46,47,50,51,59,62,64,65,66,68,69,72,75,77,80,82,83,84,85,86,87,91,95,99,100,101,103,104,106,109,110,111,118,119,120,122,124,126,128,129,133,136,138,144,150,151,153,160,161,163,169,173,176,177,183,184,185,192,193,196,198,200,202,204,208,209,215,218,220,224,229,231,237,238,239,241,247,249,250,251,253,255,256,260,261,265,267,271,273,274,275,278,280,283,284,285,286,289,293,295,296,299,304,306,307,313,314,318,321,323,325,326},
{7,10,11,20,21,24,26,27,31,32,33,41,42,52,54,55,59,60,61,63,64,65,70,71,73,74,75,80,81,82,83,84,88,89,92,96,101,104,105,106,107,111,114,116,117,119,120,126,131,133,135,136,138,143,144,146,153,155,156,157,159,161,162,166,168,170,171,174,175,178,179,181,182,183,185,191,193,201,202,203,212,213,214,219,220,223,224,225,227,230,234,236,237,241,242,243,244,245,246,253,255,259,260,261,263,264,265,266,269,273,275,283,286,289,291,292,293,294,296,297,298,300,305,306,307,308,311,314,315,322,323,326},
{1,2,3,11,12,13,16,18,21,23,25,27,28,29,31,32,33,38,39,41,42,44,45,49,51,52,53,57,59,60,61,63,69,73,78,80,86,88,92,97,105,110,111,112,114,117,120,121,128,130,132,133,136,138,139,141,147,148,150,156,159,161,163,165,167,171,172,177,178,181,182,190,195,198,204,207,208,210,211,212,221,225,226,228,229,230,235,236,238,242,243,244,245,247,254,255,256,258,259,262,263,267,270,273,278,279,280,281,283,287,289,290,292,293,296,297,301,302,304,305,306,308,311,316,317,318,319,320,321,323,325,326},
{5,6,8,9,16,19,22,24,26,29,32,34,35,41,42,43,44,47,49,50,51,53,55,57,59,60,63,64,68,71,72,73,74,77,79,87,88,89,91,92,93,98,101,102,106,112,114,116,117,120,122,123,124,125,128,129,130,133,137,138,139,146,147,149,152,153,154,155,157,158,159,160,165,168,170,171,178,179,181,182,183,184,186,188,190,191,192,196,197,200,202,203,204,208,212,215,219,221,222,224,226,227,246,249,250,252,254,258,260,266,268,271,272,273,274,275,278,279,287,291,296,297,304,307,308,310,320,322,323,324,325},
{2,4,5,8,10,11,14,20,21,23,26,27,32,34,37,38,39,42,48,49,52,53,55,59,60,66,72,73,74,75,78,81,82,83,86,88,94,96,98,99,101,103,104,114,115,117,119,123,128,132,135,139,142,144,147,148,151,152,154,156,162,163,164,165,166,167,170,171,173,176,178,180,182,184,186,189,190,191,195,205,206,212,214,217,219,221,223,225,234,236,238,240,241,245,248,252,253,254,256,257,268,270,273,274,276,278,280,281,284,286,291,292,293,296,298,300,303,306,309,310,313,315,316,322,323,324},
{2,3,11,12,15,19,22,24,26,30,37,40,41,42,48,50,54,57,58,60,61,62,66,69,72,73,78,81,83,88,89,90,91,95,97,98,99,101,102,104,105,108,109,111,112,117,120,124,125,127,128,130,131,133,135,136,142,147,148,149,151,152,155,157,159,160,162,163,166,167,170,172,176,178,179,181,182,183,188,190,193,196,206,210,211,218,222,224,232,233,239,242,246,248,249,251,253,256,259,260,261,264,265,273,276,280,283,285,286,289,290,293,297,300,302,303,305,306,309,310,312,316,320,321,322,324,328,329,330,331,335,336,340,341,342,343,345,346,347,349},
{2,4,11,15,17,19,20,21,27,31,33,35,40,45,46,48,49,50,51,52,53,55,57,58,62,63,65,67,70,71,72,73,82,83,85,86,89,92,95,96,99,102,105,110,114,117,118,119,121,123,126,127,129,132,133,135,141,142,143,146,148,150,151,153,156,164,165,173,176,182,184,185,186,188,190,192,194,195,200,203,204,205,209,217,218,221,222,225,227,229,232,233,240,251,252,260,264,267,268,272,273,274,275,279,282,288,289,290,292,297,304,305,308,309,310,312,314,317,321,322,323,324,325,328,333,338,342,343,345,350},
{1,9,10,12,13,16,17,21,28,29,30,32,38,39,41,43,45,48,49,55,56,57,58,61,66,69,72,74,76,78,79,81,85,88,90,97,99,106,108,109,111,115,116,117,118,119,121,122,126,127,129,133,134,135,137,138,139,146,147,148,149,150,151,152,153,161,164,165,168,172,173,174,181,183,189,195,196,197,199,201,202,203,205,208,210,211,213,214,215,216,217,218,221,224,226,228,231,232,234,236,238,241,245,250,251,253,255,258,259,264,265,268,272,273,274,281,282,283,285,286,287,294,296,297,300,301,304,308,313,314,317,318,320,322,324,326,329,332,334,335,336,337,338,339,341,344,346,348},
{4,10,14,17,19,20,21,22,27,31,35,36,37,41,42,44,46,47,48,49,51,56,57,59,60,64,69,72,74,77,81,82,83,88,89,96,97,101,102,105,106,107,108,111,116,117,120,123,131,132,133,134,135,136,139,140,142,143,144,149,152,156,157,158,160,161,162,163,167,168,169,174,175,176,180,183,184,185,192,195,198,209,212,214,216,218,220,222,223,225,226,228,229,230,231,232,233,241,244,245,248,252,253,257,261,263,266,272,276,278,286,288,292,294,300,301,304,305,306,308,309,310,311,314,315,317,318,320,326,331,332,335,339,340,343,344,346,348},
{1,3,4,6,7,12,13,14,18,19,20,27,28,31,35,38,41,46,48,53,55,56,58,61,62,66,67,69,71,72,75,80,85,86,87,88,89,91,92,93,95,96,98,99,100,101,102,106,113,116,118,119,120,121,122,123,124,126,127,128,129,131,132,133,134,138,143,144,146,149,153,155,161,164,165,168,169,170,171,175,180,181,182,184,187,188,197,198,199,200,205,206,207,209,210,211,216,217,221,224,228,231,233,236,238,240,243,245,246,247,248,257,262,264,266,269,270,271,272,276,281,282,283,288,299,300,305,307,309,310,311,312,314,317,318,319,320,323,325,326,332,335,337,338,340,341,344,345,346,349,350},
{3,5,7,10,11,12,13,14,16,19,20,31,35,41,42,44,45,46,47,49,51,52,53,59,60,72,75,76,80,81,82,85,86,87,88,90,91,97,103,111,117,118,119,124,125,126,134,135,136,141,143,145,146,152,155,158,160,161,166,167,169,170,175,179,180,181,182,183,189,192,193,194,195,198,203,204,207,209,210,212,219,223,224,226,228,229,233,234,235,237,250,251,252,253,256,260,263,265,267,273,274,277,278,284,288,292,293,294,295,299,303,304,307,309,311,313,314,316,319,321,322,327,328,329,332,334,336,337,338,348},
{1,3,4,7,11,13,18,21,25,27,28,31,34,37,38,39,40,46,48,50,51,55,56,58,59,62,65,69,71,77,82,83,85,86,89,91,92,95,105,109,111,112,115,119,120,122,124,126,128,129,130,133,136,137,138,144,146,147,151,157,159,162,165,166,167,173,175,176,177,180,187,189,190,192,197,205,208,209,210,213,215,224,229,232,233,235,236,238,240,242,244,249,252,253,255,257,259,262,263,266,267,270,271,275,277,278,279,280,283,286,287,294,297,299,300,303,305,307,308,309,311,319,320,323,324,325,329,335,337,340,341,343,347,348,349,350},
{1,3,4,5,6,10,11,13,14,15,16,18,22,23,24,26,28,29,30,31,32,34,36,37,38,40,43,45,48,50,56,57,66,71,73,74,85,90,96,98,99,103,104,105,107,108,109,111,112,113,115,116,118,119,121,123,124,126,127,129,131,132,135,136,139,143,145,147,148,153,154,157,159,162,167,168,173,174,177,178,179,180,182,183,185,187,188,190,191,193,198,201,204,210,217,218,221,223,227,229,232,237,239,243,250,251,257,258,263,266,268,270,272,273,274,278,279,280,281,283,285,287,288,293,296,297,298,300,308,310,317,318,320,323,324,326,327,330,331,333,335,336,337,343,344,347,349},
{2,4,6,8,10,14,15,16,17,18,20,21,25,27,28,30,33,36,40,43,47,48,51,52,53,54,58,59,60,61,62,64,67,71,73,74,76,87,89,91,92,94,99,100,102,106,108,112,113,114,116,117,119,120,121,122,129,130,131,133,135,136,137,142,145,148,150,151,153,154,156,157,158,160,163,164,166,167,169,170,171,173,175,182,183,185,186,187,189,190,191,199,201,202,204,206,209,212,216,218,219,224,225,228,233,237,238,239,240,244,246,248,255,260,265,266,269,273,278,282,284,285,286,287,288,290,291,296,298,299,302,307,314,318,321,322,329,331,334,335,338,340,341,342,343},
{3,5,11,15,16,18,20,21,23,25,26,28,30,32,33,34,36,37,48,49,50,57,58,59,60,64,66,77,79,80,81,83,86,94,96,98,100,101,103,104,105,107,108,109,111,112,115,119,121,124,127,128,132,133,134,135,136,141,142,143,144,147,155,160,162,166,167,168,170,175,177,181,182,183,186,188,189,190,191,195,196,198,203,204,205,206,207,210,211,212,213,216,218,220,221,222,223,224,227,229,232,235,236,237,238,240,243,244,246,248,249,251,252,255,256,257,260,261,262,263,267,271,273,276,277,279,281,287,288,292,294,296,297,298,303,305,310,313,316,318,319,320,321,323,330,332,333,334,341,344,345,346,347},
{5,8,9,13,15,17,18,21,23,24,27,28,29,31,37,39,40,41,48,53,54,55,56,66,69,70,73,77,85,89,90,91,92,97,101,102,104,108,109,110,111,115,116,118,119,124,125,126,138,140,141,142,144,145,146,148,150,152,153,155,158,160,163,164,165,168,171,172,173,175,176,177,178,188,195,207,211,213,216,219,223,228,230,234,237,238,242,243,246,247,248,250,251,257,261,264,266,270,272,273,274,275,276,281,282,284,294,297,299,300,301,309,311,313,314,315,318,327,330,331,332,333,334,336,338,339,340,341,344,345,349,350},
{1,2,4,5,8,11,12,15,18,21,23,25,34,38,39,41,42,45,47,49,51,52,53,54,55,56,58,63,65,71,75,76,79,81,83,84,85,89,92,98,100,101,102,103,104,106,107,108,109,110,111,112,116,117,118,119,123,124,125,129,131,138,141,143,146,150,151,152,154,156,157,159,160,163,176,177,178,180,182,184,189,190,193,194,196,197,198,199,202,211,212,214,216,225,226,227,232,236,240,241,244,247,249,252,254,256,257,263,264,270,271,274,276,278,279,282,283,286,287,290,291,292,294,296,300,302,304,307,308,309,312,330,331,332,334,335,341,342,344,345,347,348},
{1,2,3,5,9,18,23,24,30,32,33,34,37,39,56,57,58,60,61,63,64,65,67,78,85,88,92,94,98,100,102,104,107,108,112,114,122,123,126,129,130,133,135,138,148,153,154,155,159,162,169,178,181,185,186,196,197,201,203,204,207,208,209,211,219,224,225,226,228,235,236,237,239,240,241,242,248,249,250,251,252,254,257,260,261,262,265,268,269,270,271,272,278,281,282,283,289,290,294,299,300,309,312,314,318,322,323,328,331,332,333,334,339,340,341,342,345,348,350},
{2,4,8,9,16,19,20,22,23,27,29,30,31,36,38,39,40,41,42,43,45,48,50,51,52,53,54,55,57,65,73,74,75,76,85,87,89,92,94,95,96,98,100,104,111,112,115,116,118,120,126,127,130,133,134,135,138,139,141,142,143,145,149,150,154,155,156,157,161,163,166,170,174,179,182,184,186,188,189,191,194,198,201,202,205,207,209,210,211,212,218,222,223,225,228,229,230,231,232,236,238,240,243,244,245,246,248,254,258,259,265,268,274,279,286,290,293,296,298,299,303,305,309,310,312,315,322,331,333,335,342,344,348},
{2,4,8,9,12,14,19,21,22,23,24,28,33,34,36,37,40,46,52,55,58,64,69,72,73,75,79,80,83,85,89,90,95,96,98,99,102,104,107,108,112,114,116,117,118,124,126,131,133,134,135,136,137,139,140,141,142,144,145,148,153,154,158,162,163,165,166,168,173,174,175,176,177,178,179,182,183,188,189,191,193,199,201,207,211,213,216,221,222,223,224,225,227,228,233,236,240,243,244,248,252,255,257,264,265,266,268,270,271,274,276,277,278,283,284,286,289,290,291,292,293,296,300,301,306,311,313,314,317,324,326,331,333,334,343,345,347,349},
{4,6,7,9,10,11,14,19,23,24,28,29,40,41,43,44,51,64,66,67,71,74,76,77,86,89,90,93,95,98,101,102,107,108,116,119,121,122,123,125,126,129,130,131,132,134,135,136,137,144,145,146,147,148,150,152,154,156,159,166,168,177,184,191,192,195,199,201,203,204,205,207,208,210,212,216,218,219,221,222,225,229,230,231,232,233,234,236,238,241,242,243,244,246,247,248,254,255,257,259,261,262,266,267,272,275,278,280,283,285,286,287,290,291,292,295,297,299,300,301,302,303,306,314,315,316,317,318,319,323,325,329,336,340,341,342},
{3,6,7,8,10,11,12,13,17,19,20,21,23,24,28,31,37,42,43,45,46,48,49,51,52,59,60,64,67,68,69,70,71,74,76,78,79,83,85,87,91,93,98,103,104,105,106,109,110,112,117,119,121,124,129,135,138,140,142,146,149,151,152,154,155,158,160,167,168,172,173,181,182,185,189,192,196,197,198,203,204,206,211,216,218,219,220,224,225,229,230,237,242,243,244,245,246,247,251,253,254,259,261,265,266,268,271,273,278,280,281,282,287,288,289,293,295,296,301,302,305,306,310,312,313,318,320,321,323,324,325,328,330,331,332,333,334,337,338,339,341,346,349,350},
{2,3,8,10,12,13,14,16,17,18,19,26,31,34,40,42,47,48,49,50,51,53,56,57,60,62,67,68,72,73,74,76,77,79,80,84,86,89,92,95,97,99,103,105,106,107,108,110,111,112,114,116,117,118,120,121,123,126,127,129,131,132,133,134,136,138,139,140,142,144,147,150,152,153,154,161,165,167,168,171,172,174,175,176,178,181,183,189,192,193,197,199,205,206,207,210,211,212,213,214,216,219,222,224,226,227,228,231,233,234,236,238,239,240,241,248,249,250,251,253,258,259,266,268,270,273,276,277,278,283,285,288,289,290,291,292,297,301,302,307,308,310,311,315,316,318,322,323,325,326,327,328,330,336,338,342,344,345,349,350},
{2,7,11,14,16,20,21,22,29,34,37,40,44,46,47,48,51,53,60,61,62,65,68,69,74,77,79,81,82,85,86,89,90,91,93,94,95,97,102,104,105,109,110,112,113,114,116,117,120,122,125,126,128,129,130,131,136,137,138,139,140,141,145,146,147,154,156,163,164,168,169,170,175,181,182,184,185,186,188,189,191,192,196,200,203,204,207,209,210,211,212,219,223,225,226,227,228,229,230,233,234,235,238,239,246,247,248,249,255,256,257,259,264,272,274,275,276,277,278,280,281,282,283,285,287,288,289,290,291,296,297,300,301,302,303,304,306,307,310,312,315,318,319,322,325,327,335,336,338,344,348},
{1,3,6,10,12,13,17,20,21,27,30,31,32,34,35,44,54,55,58,59,61,63,64,66,68,72,73,79,80,89,94,96,98,100,102,104,107,108,110,112,114,116,122,123,124,126,127,130,131,136,138,143,144,145,148,149,150,151,154,156,160,165,169,170,172,175,182,183,192,194,196,197,200,202,204,210,213,214,219,222,224,226,227,228,230,231,236,238,239,240,242,243,244,248,249,252,253,256,260,261,268,271,272,277,283,289,290,291,299,302,304,305,307,309,313,314,316,322,329,331,334,338,339,343,346,348,349,350},
{4,8,10,12,16,20,23,25,27,31,32,33,34,35,45,48,49,50,53,55,56,57,59,61,62,67,68,69,75,83,84,89,91,92,93,95,96,97,98,100,102,104,106,115,117,120,121,124,125,128,129,133,137,139,142,143,144,147,148,150,153,155,161,164,165,169,170,172,174,175,177,179,180,181,182,186,187,189,191,194,196,199,200,207,208,214,215,220,223,224,226,227,228,229,230,232,246,249,250,252,254,256,257,258,259,260,263,264,269,273,274,277,283,287,290,291,293,297,299,300,301,302,307,312,313,317,318,321,326,327,328,330,332,337,338,340,343,345},
{1,4,7,13,14,17,20,23,28,34,37,39,43,44,47,56,58,60,61,68,69,70,71,73,76,77,80,81,86,88,89,90,91,95,101,104,105,108,113,117,121,125,127,129,132,133,135,136,144,145,148,152,153,154,155,158,161,162,165,169,171,173,174,176,177,179,180,183,186,189,193,196,197,201,204,208,209,211,212,213,214,218,225,226,227,228,238,241,243,245,248,250,254,256,257,258,259,262,263,269,271,277,279,286,287,289,290,292,293,296,298,301,302,305,311,312,316,321,322,328,332,334,335,336,338,339,343,344,347,350},
{1,2,3,4,7,11,12,13,15,16,18,26,28,35,38,42,43,48,49,50,51,53,54,58,61,62,74,79,80,81,82,83,94,99,102,109,113,114,115,119,122,124,126,127,129,130,134,137,140,142,145,149,151,155,156,157,159,162,164,168,169,171,175,177,180,181,183,187,188,192,197,199,201,206,208,212,213,219,220,221,223,226,227,228,230,232,239,241,245,251,254,261,262,269,274,277,283,284,285,287,288,289,290,291,292,293,295,298,300,302,303,304,307,308,309,311,317,318,320,323,324,326,327,330,334,335,337,338,339,341,345,346,347,349,350},
{3,5,7,10,12,16,17,18,19,20,31,32,35,36,37,38,40,41,42,44,45,46,48,52,54,56,62,63,67,68,69,70,72,74,75,78,79,83,89,91,95,97,98,100,105,106,113,114,115,119,120,127,133,137,138,139,144,146,147,148,149,150,151,153,154,155,157,158,159,160,163,164,166,168,174,176,179,181,185,192,193,194,197,202,203,211,213,215,218,221,222,224,227,228,230,231,234,237,239,249,250,253,255,257,260,263,264,265,266,268,269,272,273,275,280,281,284,285,287,293,298,299,303,307,309,313,315,318,320,323,328,331,333,334,335,339,340,349,355,356,358,359,361,365,371,372,373},
{1,2,3,5,10,15,17,18,19,21,23,24,26,28,35,36,37,39,40,44,45,50,56,58,59,65,66,70,71,73,75,79,80,81,83,86,89,90,91,92,96,102,108,109,112,113,115,116,119,120,123,124,128,131,132,134,136,139,144,151,152,154,155,157,159,160,162,163,167,170,179,181,183,185,186,187,192,193,197,199,200,203,204,208,209,211,213,214,217,220,221,226,227,228,232,233,235,241,247,251,258,263,265,269,270,272,273,276,280,283,286,287,288,289,294,295,297,300,305,308,309,311,312,314,315,318,319,320,322,324,326,329,330,333,334,338,341,346,350,361,362,364,367,369,370},
{2,7,10,16,18,21,23,24,28,30,31,32,33,34,37,39,40,43,45,46,48,49,58,62,63,68,72,74,76,77,79,80,81,83,86,87,89,93,94,98,104,106,107,110,111,112,117,119,124,125,128,130,131,135,137,138,142,145,146,147,148,151,153,154,156,163,164,165,167,172,176,177,183,184,185,196,198,204,207,210,211,213,214,216,220,221,224,227,231,232,236,238,239,246,247,249,251,253,257,260,261,262,268,269,271,273,275,278,284,286,287,290,292,293,294,296,297,298,299,301,302,303,304,305,309,310,311,315,322,325,326,329,330,331,332,333,338,343,346,349,354,356,358,368,370,371,372,373},
{2,10,11,17,18,19,24,25,29,31,35,39,40,41,42,43,48,53,54,55,56,57,58,67,69,71,73,75,77,82,86,88,89,90,91,99,100,103,104,107,109,110,113,117,118,119,120,121,129,133,135,137,142,146,154,156,157,158,159,161,170,173,174,175,178,180,186,194,196,197,198,199,200,203,205,207,209,216,217,219,226,230,232,233,237,238,240,246,248,249,255,256,259,261,263,265,267,269,270,271,272,274,279,284,288,289,290,292,293,294,295,297,299,301,302,306,307,308,315,316,320,323,324,327,329,332,333,334,338,344,346,353,355,356,358,360,361,363,368,370,371},
{1,3,5,6,10,15,17,19,22,28,31,32,33,34,35,39,40,41,43,46,49,50,52,53,58,62,66,67,71,73,76,77,81,84,85,87,88,89,93,94,101,104,106,107,108,109,112,119,122,123,124,129,130,131,134,136,138,139,140,142,146,148,151,152,156,159,160,162,163,170,171,172,173,174,176,178,180,181,182,184,187,188,190,192,195,196,198,203,204,205,208,209,211,212,220,221,225,226,229,235,250,251,252,255,256,257,260,262,266,268,270,271,274,275,276,279,280,281,283,290,292,294,299,300,303,305,308,311,313,314,315,319,320,321,326,328,330,332,335,337,338,339,340,345,348,350,354,357,358,359,361,363,370,371,373},
{2,8,9,16,17,21,25,26,27,28,31,33,34,35,36,37,39,40,41,42,46,48,52,56,58,65,66,70,72,73,75,76,77,82,83,84,86,89,92,96,99,101,102,103,104,106,107,111,112,114,115,119,120,124,127,129,130,134,135,137,141,143,144,146,147,149,151,152,154,156,157,158,162,172,183,184,185,187,189,190,191,194,200,204,209,214,217,218,219,221,232,234,236,237,241,243,250,256,259,261,262,264,265,266,268,272,273,277,278,279,281,285,287,290,296,302,303,304,307,308,311,313,319,325,328,335,336,338,346,349,350,353,356,363,365,366,373},
{1,6,7,10,13,15,16,17,26,27,28,32,34,38,39,41,43,46,47,54,64,69,70,71,75,79,82,84,87,90,92,95,96,98,100,102,106,115,116,120,126,127,128,131,133,134,135,142,151,153,154,155,158,159,161,167,168,169,172,173,174,176,180,182,185,186,194,195,198,200,207,211,215,216,217,219,223,224,225,229,234,236,242,244,245,248,252,254,255,256,257,259,260,261,263,265,267,268,269,270,271,274,276,277,280,281,282,283,286,287,288,289,290,295,296,300,306,307,312,314,315,318,321,331,336,340,341,343,344,346,350,361,364,365,366,370},
{1,2,4,13,14,18,19,24,25,29,32,33,34,37,39,46,47,53,54,55,58,62,64,65,67,68,69,71,73,75,77,78,81,83,85,86,89,91,94,95,96,99,101,104,107,111,113,114,117,118,120,122,125,128,129,131,134,136,138,139,140,141,142,145,148,149,151,152,153,157,158,159,164,169,174,176,177,179,184,187,188,189,193,197,198,199,207,210,213,215,216,218,222,225,227,234,236,239,240,243,244,247,248,250,253,254,255,259,269,271,273,274,280,282,283,285,288,290,291,292,295,296,299,301,302,303,304,307,311,312,314,316,320,335,337,339,340,348,349,350,352,357,358,359,363,364,365,368,369},
{1,4,10,11,12,16,18,22,23,27,40,41,42,45,46,47,48,50,53,55,58,59,62,64,65,66,67,68,70,71,73,81,84,85,86,87,90,96,98,100,101,103,104,105,108,109,110,111,112,113,127,128,130,131,133,135,141,142,149,152,154,155,158,159,161,162,164,172,176,179,184,187,188,189,192,194,198,201,207,209,211,212,214,217,218,224,225,228,232,236,237,238,239,240,242,243,249,251,252,254,255,261,265,268,272,276,277,278,279,280,284,285,289,291,292,296,297,299,300,302,303,305,306,308,310,312,315,316,317,318,320,322,324,325,327,333,338,343,344,347,353,356,357,358,364,366,371,373},
{1,3,8,12,14,25,26,28,32,35,37,39,41,43,44,53,55,57,66,70,72,80,82,84,85,86,88,91,93,94,95,96,100,102,105,106,109,110,111,112,113,117,120,121,123,127,128,129,131,133,139,140,143,146,147,150,155,157,159,166,169,170,174,176,183,185,190,194,199,201,202,203,206,207,210,218,219,221,224,225,229,230,235,237,239,241,242,243,244,255,257,258,259,262,263,268,270,271,272,278,281,282,285,286,290,292,295,297,299,300,302,303,306,308,310,313,318,319,321,324,326,329,332,334,341,342,343,344,345,346,348,350,351,359,360,361,362,363,364,365,369,370},
{1,2,4,5,6,7,8,16,17,20,22,23,24,25,26,31,33,39,41,43,44,47,48,52,54,55,58,59,64,67,68,69,72,73,75,79,80,83,85,87,88,89,93,94,98,99,102,104,108,109,110,113,114,116,118,122,125,126,129,130,131,135,136,137,138,139,140,143,144,145,146,147,151,157,158,159,163,164,167,168,169,172,176,184,186,191,193,195,198,199,201,205,209,212,214,215,218,220,221,222,223,226,227,228,230,231,234,236,238,240,243,244,245,249,251,256,259,262,265,266,269,270,271,273,274,275,276,278,279,286,288,289,290,293,294,296,297,299,300,302,304,305,309,310,312,313,314,316,318,319,320,321,322,325,327,329,330,331,332,337,339,341,343,344,346,347,353,356,358,359,360,361,363,364,368},
{3,6,7,8,9,12,14,16,22,23,26,28,29,30,35,36,41,43,45,47,50,51,52,55,58,64,65,69,84,86,90,92,97,100,101,104,105,106,107,108,109,110,111,113,116,121,123,125,127,129,133,140,141,142,143,144,145,146,154,155,156,159,160,161,162,163,164,165,172,174,176,177,180,183,187,188,189,190,192,194,195,196,199,201,203,204,205,209,213,215,217,218,226,227,229,234,235,236,238,239,242,245,246,247,249,254,257,258,260,262,265,271,276,281,286,287,289,292,293,294,298,300,308,310,311,312,314,316,319,320,322,323,325,327,328,330,333,335,337,339,342,346,347,348,351,354,363,369,370},
{6,8,9,10,11,15,16,33,36,41,42,45,46,48,53,55,56,64,66,67,71,72,76,77,78,79,81,87,90,91,95,97,99,101,102,103,104,105,109,112,113,117,118,119,121,124,127,129,133,134,135,137,144,145,149,150,154,157,160,162,164,165,166,167,172,173,174,175,176,177,178,179,180,187,189,193,196,199,200,203,204,206,207,210,211,212,213,214,220,223,225,226,228,231,233,238,240,245,249,251,252,254,258,259,261,269,272,285,288,291,292,296,304,305,306,307,309,310,311,313,318,321,322,324,328,330,334,337,338,339,341,352,358,359,362,364,368,370,371,372},
{1,2,3,6,7,15,16,18,19,21,24,27,30,32,33,34,35,36,37,41,42,45,47,52,65,66,73,74,77,78,79,80,82,83,87,89,90,91,97,103,104,108,109,110,115,118,119,120,121,123,125,128,132,135,138,139,144,146,149,151,152,154,158,160,162,164,165,168,173,176,177,180,181,182,186,187,188,194,196,198,199,200,202,203,204,205,208,209,212,215,216,217,220,222,224,225,228,235,240,241,244,247,248,250,251,257,258,264,265,267,269,271,272,273,275,276,278,280,281,282,287,288,290,291,292,293,294,299,300,304,306,308,310,316,319,320,321,322,324,327,329,334,335,340,344,345,347,350,353,354,355,360,362,363,364,366,367,368,370,371},
{1,2,6,8,10,12,13,15,16,17,19,20,22,23,25,27,33,34,35,36,42,45,46,47,51,53,54,56,60,63,65,72,74,76,78,80,81,82,85,90,91,93,94,96,98,101,102,103,105,108,112,113,116,117,122,124,125,126,130,132,134,136,138,144,146,148,149,150,154,159,160,164,168,169,171,172,173,176,179,180,181,183,184,185,186,188,190,192,194,195,196,197,199,202,203,212,214,216,217,218,219,220,221,224,228,229,230,232,234,235,240,241,243,244,251,252,254,256,259,260,265,266,269,273,274,278,281,282,284,286,288,289,294,296,297,298,299,300,303,304,314,315,316,317,318,321,324,327,330,332,341,348,349,350,361,362,365,367,368,370,372,373},
{7,9,10,11,17,18,22,26,31,36,38,41,44,45,47,50,55,59,66,68,74,75,78,79,80,81,85,88,91,93,94,96,98,100,102,104,105,107,110,113,115,117,120,123,126,127,131,133,135,136,139,140,143,145,146,150,157,158,160,164,165,167,170,172,183,184,185,186,187,188,191,192,193,194,196,197,198,199,200,201,202,204,217,219,221,222,225,227,228,229,239,240,242,243,246,249,251,254,255,256,257,259,260,261,263,265,266,271,272,273,274,275,280,283,284,287,288,289,291,293,296,300,302,303,304,306,307,309,312,313,314,319,320,322,324,326,327,334,336,337,345,346,348,349,350,354,355,356,361,362,363,364,365,372,373},
{2,5,6,10,11,13,15,16,19,20,22,24,27,28,29,30,38,40,41,42,44,45,46,47,48,50,55,56,60,61,65,69,70,72,73,76,78,80,88,93,95,101,105,108,110,111,112,114,120,129,131,132,137,138,141,144,149,151,153,155,156,157,158,159,163,164,168,169,172,173,174,175,176,178,180,183,184,187,190,192,196,200,202,204,208,213,215,216,217,231,233,236,237,245,247,251,253,255,261,263,265,266,268,269,270,275,276,277,278,281,285,286,295,296,297,298,299,302,304,305,308,312,313,316,317,320,321,322,324,328,329,330,332,341,342,346,348,353,354,357,359,360,362,366,368},
{1,7,9,12,15,17,18,21,28,35,36,37,39,42,44,45,46,49,56,57,60,61,63,67,68,71,72,79,80,85,87,89,90,92,93,94,97,98,99,100,103,104,107,110,114,120,124,125,126,128,132,137,138,139,140,141,142,144,145,148,151,153,154,156,161,165,167,170,173,175,186,187,190,191,192,197,198,199,204,207,208,209,212,213,214,217,219,225,226,229,231,234,237,238,239,245,246,249,250,254,258,261,262,265,270,272,273,275,278,279,281,286,288,289,290,293,303,308,309,310,313,314,315,318,326,331,335,336,337,338,340,346,351,353,355,357,362,364,365,367,369,370,373},
{1,2,6,7,9,10,13,15,16,17,18,19,21,23,28,29,30,33,39,44,45,48,50,53,56,57,59,60,61,65,69,72,73,80,82,86,89,90,91,93,94,98,99,101,102,103,114,115,117,118,119,123,125,127,133,134,136,140,141,142,145,146,148,154,155,159,164,165,174,175,176,178,180,181,183,190,191,194,198,200,202,203,205,207,209,210,214,220,221,222,223,225,226,229,230,235,236,237,238,240,241,243,245,254,255,256,257,260,263,264,265,268,269,270,271,272,273,274,277,280,281,287,290,292,293,295,296,300,301,302,303,306,307,309,315,317,318,319,321,325,327,329,334,336,337,340,341,348,352,353,356,358,360,362,365,371,372,373},
{3,5,9,10,14,16,19,21,23,25,27,30,33,34,35,37,40,41,42,44,47,49,51,53,58,59,60,62,64,65,69,72,76,80,82,85,87,89,93,97,98,99,101,103,107,109,111,117,121,124,125,126,128,131,136,137,140,142,144,147,148,149,150,153,154,159,165,170,177,180,181,182,183,184,185,187,189,193,194,197,199,200,201,203,210,213,216,218,219,220,223,228,230,235,239,242,243,245,252,253,255,257,258,260,268,270,274,275,277,279,283,285,287,288,290,291,294,295,298,301,302,305,307,312,313,315,320,322,326,330,335,336,339,344,345,350,352,353,355,358,361,362,364,369,370,371},
{4,5,7,8,9,13,15,16,18,19,23,24,31,34,36,37,39,41,44,45,47,48,52,53,54,55,56,57,58,59,60,63,65,67,69,70,71,72,73,74,77,79,80,82,83,87,89,91,92,93,97,98,100,103,104,105,107,108,112,113,114,115,117,120,123,128,129,130,132,134,135,139,140,143,144,145,146,148,149,150,152,154,157,158,159,160,162,163,164,168,172,173,174,175,180,183,184,185,186,188,191,193,194,198,201,204,210,211,212,214,215,217,218,220,223,226,227,228,231,234,236,239,245,246,247,248,249,256,257,258,260,261,266,269,270,271,277,279,283,286,287,288,291,293,294,297,298,299,301,303,304,305,306,307,309,310,315,321,322,323,324,327,328,331,333,334,335,339,341,342,345,346,347,357,360,362,363,370,371,373},
{1,3,4,6,7,9,11,13,15,16,17,19,20,21,22,23,24,26,28,29,32,33,35,37,39,41,45,46,50,52,56,57,62,63,64,65,70,71,75,77,80,83,86,90,92,93,94,96,100,101,102,107,109,110,111,112,114,115,120,122,123,124,126,127,129,130,131,133,137,143,144,146,148,152,155,157,158,159,160,163,165,166,167,171,172,174,178,183,185,190,191,195,198,199,200,210,216,219,220,221,222,225,226,230,233,239,243,246,248,249,251,252,254,255,260,264,271,273,278,279,280,281,285,294,297,299,303,305,306,307,310,312,313,315,316,318,319,321,322,323,327,328,330,332,334,336,339,340,341,342,344,347,348,351,352,354,355,359,364,368,371,373},
{2,3,6,8,10,14,16,17,18,23,25,26,27,29,32,33,34,38,40,42,44,49,50,52,58,60,61,62,65,66,67,69,70,71,72,75,78,84,85,87,89,90,94,100,102,109,111,116,121,128,130,137,141,142,143,147,154,157,159,160,162,164,166,173,174,176,179,181,182,190,194,195,197,198,204,205,207,215,219,220,223,226,228,232,242,250,254,257,258,259,263,264,265,269,271,277,281,284,286,287,288,291,292,293,295,297,299,306,312,315,320,324,325,328,332,333,335,338,339,341,342,344,349,351,352,353,356,364,366,370,371,373,376,380,381,384,386,387,389,391,394,395},
{3,4,8,9,13,21,22,25,26,27,29,32,35,38,39,40,41,42,48,49,58,63,64,65,67,68,77,85,86,87,89,94,98,99,102,106,108,109,110,111,113,116,117,122,125,126,128,131,132,133,139,143,147,148,151,153,154,156,159,160,161,163,164,167,168,170,171,173,174,177,178,181,182,190,191,192,196,197,198,199,203,205,207,210,211,215,219,220,223,224,229,233,236,239,241,242,243,249,251,252,254,255,257,258,260,261,264,268,272,274,277,279,280,281,282,289,291,294,296,297,299,303,307,310,312,315,322,323,324,326,328,330,332,336,337,339,341,344,346,348,351,352,355,356,357,359,360,363,365,366,375,377,378,379,381,383,385,387,389,390,391,394,395},
{1,4,7,8,11,12,14,17,18,23,26,29,33,36,43,44,45,48,49,57,58,60,61,64,65,68,75,80,81,83,84,85,86,87,91,92,93,94,97,98,99,100,101,104,106,107,109,112,113,114,115,118,126,127,133,136,137,138,142,144,148,149,150,151,152,153,157,163,166,167,170,173,177,179,180,183,186,193,195,200,201,202,205,207,209,211,215,220,221,222,226,227,228,232,235,243,245,248,252,261,262,263,265,266,269,273,275,276,277,282,283,286,289,293,296,303,305,306,310,314,318,320,324,325,329,330,333,338,344,347,348,350,352,353,359,364,366,368,372,373,374,385,390,391,392},
{1,7,12,19,21,29,34,35,36,37,42,44,48,49,52,54,58,60,64,68,69,70,76,78,79,80,81,85,89,93,95,96,97,98,102,104,108,110,111,112,118,119,123,124,127,130,135,137,139,140,144,145,147,149,150,153,155,157,159,160,162,175,176,185,186,187,189,193,194,196,197,200,201,202,203,205,206,207,208,209,210,211,212,214,215,220,221,225,226,235,236,242,243,246,253,254,255,256,259,263,265,266,268,273,276,278,280,281,284,285,286,289,295,297,298,303,305,307,308,311,315,316,325,326,327,330,331,332,333,334,340,341,346,348,352,353,354,356,357,358,360,361,362,363,364,365,368,369,370,371,374,375,391,393,394},
{1,3,4,7,8,9,13,14,17,22,24,25,27,31,46,47,49,50,51,52,53,54,55,56,60,63,65,67,68,69,70,72,77,80,82,83,85,86,91,96,97,98,99,101,108,110,115,118,119,121,123,125,126,127,129,133,135,138,142,145,146,147,148,150,152,153,156,160,165,166,170,171,172,173,174,175,176,183,184,187,193,200,202,203,204,208,209,210,211,212,213,220,225,227,228,229,231,232,234,235,238,239,243,247,252,253,259,260,261,262,263,265,267,275,278,280,283,284,286,289,293,297,298,301,303,305,307,311,314,317,325,330,332,335,336,337,338,341,344,350,351,352,354,355,358,360,364,365,366,367,368,369,374,375,378,380,383,384,385,386,388,390,391,394,395},
{2,5,8,10,12,13,14,21,23,25,26,30,31,32,33,36,41,47,49,52,53,54,56,57,58,59,60,62,66,68,69,71,74,77,78,79,82,83,84,86,89,92,93,99,103,104,108,111,113,118,121,128,135,140,143,145,146,149,151,152,159,170,171,172,176,177,182,183,186,188,192,195,197,200,201,202,203,205,206,208,209,210,211,214,215,218,219,222,223,225,227,234,237,240,242,246,248,249,250,253,255,259,263,271,272,274,285,287,288,291,297,303,307,308,311,315,316,317,319,323,331,334,337,338,339,340,344,347,348,349,351,353,356,357,358,359,360,361,362,363,366,368,372,378,379,386,387,388,393,394},
{2,6,7,11,12,13,19,21,27,28,32,35,36,38,43,49,50,53,59,64,69,74,75,77,80,87,88,93,96,98,101,102,103,107,108,111,114,115,117,120,122,124,131,132,133,134,136,141,144,149,152,153,157,160,163,166,168,170,175,177,178,180,182,191,196,198,199,200,205,209,210,212,213,217,219,222,224,227,229,230,233,237,238,239,240,244,247,249,252,253,254,255,256,257,258,259,263,269,272,273,276,277,279,283,284,290,293,296,301,302,304,306,311,312,314,316,321,322,324,332,337,343,344,346,347,350,351,353,360,362,363,364,365,366,367,372,374,375,376,382,383,384,387,388,390,394},
{3,5,8,9,12,14,16,18,25,26,27,28,31,35,38,39,40,41,43,46,47,51,53,57,60,61,62,63,65,69,71,72,77,78,84,88,90,92,93,97,101,103,105,110,113,115,118,123,125,127,129,137,141,142,144,145,151,153,161,164,167,174,175,176,177,179,184,185,186,187,188,191,193,195,197,201,202,204,206,207,209,211,213,214,215,216,219,220,221,225,226,231,232,233,236,237,238,239,240,241,242,243,253,255,259,261,262,266,271,272,275,278,279,280,281,285,286,287,288,291,293,295,296,299,303,308,310,311,312,316,318,319,322,325,326,327,328,329,330,339,344,347,359,360,361,362,364,366,367,368,370,373,376,378,379,383,384,391,392,395},
{2,8,9,10,11,14,15,17,19,20,25,27,30,31,32,41,42,46,47,49,50,56,59,66,69,70,71,72,76,77,79,81,88,89,90,94,99,100,101,103,104,107,108,109,110,111,113,114,115,116,119,125,126,131,137,138,141,142,144,146,153,156,159,162,168,169,172,173,174,176,177,179,181,182,183,189,193,195,198,200,201,202,203,206,207,212,215,216,217,218,222,224,225,227,230,232,233,234,237,240,248,249,253,256,261,263,264,268,272,274,275,277,280,284,285,288,289,291,293,296,297,299,303,304,306,309,316,319,320,323,329,332,336,337,338,344,345,347,349,351,356,359,360,362,367,371,373,375,379,380,381,382,384,387,388,389,391,394,395},
{1,3,11,12,14,15,17,20,35,42,45,48,51,52,54,56,57,61,64,65,66,70,71,74,75,76,78,81,83,89,94,95,97,99,100,102,103,107,110,111,114,118,121,122,123,130,131,134,136,140,141,142,143,144,145,146,148,151,152,154,157,162,163,166,170,176,177,179,180,182,191,194,195,197,198,199,201,204,206,208,213,215,217,226,231,232,233,236,237,238,239,244,246,247,249,250,255,257,258,261,266,268,269,273,274,275,280,283,285,286,289,290,291,293,294,296,305,306,308,309,313,316,317,319,320,324,331,332,333,335,336,339,343,344,348,349,354,357,359,361,363,364,365,367,368,370,372,374,375,377,378,383,385,387,389,391},
{2,3,5,6,7,11,15,20,23,24,26,28,34,36,37,39,42,43,45,48,49,51,52,53,55,60,62,63,64,65,69,74,78,80,83,86,89,92,95,98,101,104,107,110,111,113,116,125,126,128,131,132,134,136,137,139,140,142,143,145,149,154,156,157,160,166,167,172,176,177,180,181,183,186,189,191,192,194,195,196,197,198,200,206,207,208,211,217,218,220,224,230,231,234,239,241,247,249,250,251,252,253,254,257,261,267,270,272,281,282,283,286,289,291,292,294,295,298,299,301,302,304,305,306,308,309,311,313,316,324,325,328,329,330,331,335,338,343,344,347,348,351,354,356,360,362,363,366,368,369,370,371,372,373,375,377,379,381,392,394,395},
{4,6,9,12,13,15,19,20,21,23,24,25,28,32,33,39,40,41,43,50,55,61,62,63,64,65,66,70,73,74,76,77,78,81,84,88,91,93,98,100,103,105,107,109,113,116,117,118,119,122,123,128,129,130,131,132,134,137,138,139,140,141,144,145,147,148,153,154,155,157,159,161,163,168,169,170,172,174,175,178,181,182,186,190,191,193,194,197,198,199,200,203,204,206,207,209,211,212,213,214,222,223,224,225,227,229,233,236,244,250,254,255,257,258,263,267,268,269,270,271,274,275,278,280,286,289,291,295,296,297,300,302,303,306,307,308,309,313,314,316,318,319,321,322,323,325,329,331,333,336,337,338,339,343,345,347,349,350,351,352,355,360,363,367,369,370,371,373,377,380,381,382,383,386,391,394,395},
{4,5,8,9,11,12,14,18,19,20,22,24,28,38,39,40,44,46,47,50,52,57,58,61,62,65,66,67,68,70,72,77,78,80,84,87,94,97,99,103,105,108,110,115,120,122,123,127,129,132,134,139,140,148,149,152,153,155,159,166,167,168,172,174,177,178,180,181,184,187,189,192,193,202,203,205,207,210,211,215,218,219,220,222,224,225,226,228,230,234,236,237,238,239,240,242,243,247,248,250,253,254,258,259,265,269,270,272,274,277,278,282,283,285,292,293,294,297,299,300,308,309,310,312,314,315,317,320,322,324,326,327,328,333,336,338,339,342,343,345,350,351,354,355,356,360,362,366,371,375,376,378,380,381,382,386,390,393,395},
{2,6,7,8,9,10,11,14,15,18,21,28,30,31,32,35,36,38,46,48,51,53,54,55,57,58,60,61,67,69,73,74,79,80,83,86,90,91,92,93,97,102,106,108,113,118,121,122,127,129,134,137,138,144,145,152,156,158,159,163,164,167,168,170,173,174,178,181,183,186,187,189,190,199,200,201,205,207,208,209,210,211,213,217,220,227,234,235,236,238,239,244,246,248,253,255,258,259,267,269,270,271,272,275,276,280,281,283,284,285,288,290,295,298,299,302,303,304,305,306,309,310,311,314,317,325,328,330,331,332,334,337,339,343,348,349,350,351,352,353,355,356,360,361,365,366,367,373,378,382,385,386,387,390,392,394,395},
{5,6,9,13,14,15,16,18,20,24,26,27,29,30,32,33,36,39,40,42,43,47,48,56,57,59,60,62,66,67,69,71,72,73,78,79,82,84,91,92,97,99,101,103,105,112,116,117,119,120,125,126,127,132,137,138,139,140,141,142,143,144,148,151,154,157,158,160,161,163,167,170,173,176,180,182,183,184,185,187,188,189,191,196,197,198,199,203,204,206,207,212,213,216,220,221,226,227,229,230,235,236,250,254,256,257,262,271,274,276,279,280,283,284,285,287,289,290,293,295,296,297,298,301,304,307,311,312,313,317,320,321,322,324,325,326,328,331,336,338,342,346,355,356,359,360,363,365,369,371,375,377,380,381,382,384,388,389,390,393},
{1,5,10,11,13,22,23,24,26,27,30,32,33,38,40,44,48,50,51,53,58,64,65,66,67,74,75,77,78,84,89,90,91,92,95,98,100,103,105,106,109,111,113,115,116,117,118,119,123,127,129,131,134,135,137,147,149,152,153,154,155,156,157,164,166,167,168,171,174,176,177,178,179,180,181,183,185,190,191,193,195,196,199,202,205,207,208,209,212,214,215,217,221,226,227,228,230,231,233,237,244,246,247,248,249,250,263,264,267,272,274,282,284,292,297,302,306,307,308,309,310,311,318,322,324,330,331,332,333,334,338,339,340,343,345,346,349,351,352,355,357,360,362,367,379,380,385,386,387,388,392,394,395},
{1,5,7,8,9,11,15,16,17,22,23,24,28,29,32,34,35,36,37,42,44,45,48,50,53,54,58,61,64,69,72,76,80,91,93,95,97,98,101,103,105,107,110,111,113,114,116,117,120,124,127,128,133,135,136,137,141,143,147,148,151,153,154,155,157,163,165,167,169,173,175,179,181,185,186,191,196,197,198,201,206,216,217,219,220,223,225,226,227,228,234,235,240,245,252,258,259,260,263,265,267,268,272,275,277,283,284,285,290,295,298,301,304,305,308,309,310,312,315,316,318,319,320,321,322,323,330,335,336,339,341,346,347,349,351,352,356,358,359,360,361,363,366,374,375,380,381,383,384,386,390,391,395},
{2,10,11,12,13,14,15,20,21,24,26,27,28,31,34,41,43,47,48,54,56,57,63,65,66,75,76,83,85,89,91,99,101,109,113,115,116,122,125,128,130,131,133,134,136,137,138,141,143,144,145,147,157,159,161,162,163,164,167,171,174,175,177,178,179,180,181,182,184,185,188,189,190,191,192,193,195,197,198,201,205,207,210,211,214,217,218,222,226,229,233,234,235,240,242,244,245,250,254,255,256,257,258,259,262,263,265,267,269,272,273,274,276,284,291,292,293,294,298,302,303,304,308,309,312,314,315,318,319,321,322,326,329,330,331,332,333,334,336,339,343,346,348,350,351,352,353,358,367,368,369,372,375,376,379,380,381,384,388,392,394},
{5,8,13,14,15,17,25,33,34,35,36,37,38,40,41,45,50,51,52,54,55,56,59,61,65,66,69,72,77,78,79,81,82,83,84,85,86,87,90,93,97,98,100,101,102,104,105,106,112,114,117,118,121,122,128,131,132,134,138,149,151,153,156,158,159,160,162,164,169,171,172,175,179,180,181,183,185,186,188,189,190,195,200,202,203,206,213,215,216,217,219,223,224,225,227,228,230,232,236,241,242,243,245,247,248,251,254,255,260,261,265,270,274,279,282,284,285,290,292,299,300,301,303,304,306,308,309,310,312,313,317,318,320,327,328,330,331,337,338,339,340,342,343,348,349,350,351,357,358,359,361,365,368,369,370,373,374,377,378,380,381,382,384,385,387,388,394,395},
{6,7,8,9,10,12,16,20,27,28,30,32,35,41,46,47,51,52,53,54,56,60,61,62,65,70,72,73,77,79,81,82,84,85,90,93,99,101,102,103,107,109,115,117,118,122,123,125,126,130,140,142,144,146,148,151,152,155,158,162,163,170,171,172,173,177,181,183,184,187,189,191,192,196,201,202,205,207,209,211,215,216,221,222,225,226,228,230,231,232,233,234,236,238,241,242,245,248,250,253,254,255,260,263,264,265,269,270,272,273,276,277,278,280,285,292,297,299,300,301,305,314,318,319,321,324,335,338,342,344,345,349,352,358,360,368,374,376,378,380,383,387,390,392,395},
{7,8,11,13,16,17,21,26,30,31,32,33,35,37,38,42,44,50,54,58,59,60,62,65,66,69,70,71,73,76,77,81,82,84,86,87,89,95,97,98,99,100,101,102,103,106,107,108,112,114,115,118,120,122,125,126,130,131,133,136,138,139,144,146,147,148,150,153,154,158,159,164,169,170,171,174,176,178,181,191,197,204,206,207,212,213,214,217,218,219,226,227,228,231,236,237,238,242,243,245,248,250,251,252,253,258,260,263,271,274,275,277,283,286,291,296,298,299,301,302,306,307,308,309,313,314,317,318,319,320,322,328,329,332,335,336,337,340,342,346,347,348,350,351,357,359,360,361,363,365,366,369,371,372,376,379,380,382,383,386,387,391,393,395},
{1,5,7,8,11,13,15,16,17,18,19,20,23,25,26,32,34,35,37,40,41,45,46,47,50,53,54,55,57,59,60,61,63,67,69,74,77,81,82,84,88,91,93,98,99,100,105,111,113,115,117,118,119,125,128,129,136,138,140,141,143,145,147,149,150,154,157,158,163,168,171,172,176,181,186,187,189,191,192,193,197,199,200,201,202,204,205,206,210,214,217,219,221,224,225,228,231,232,233,235,236,240,243,246,247,249,250,251,256,258,261,266,269,270,274,277,278,279,285,288,289,290,297,303,306,307,308,309,312,315,316,320,322,324,327,328,329,341,342,345,349,350,352,355,366,372,375,377,378,379,380,386,387,389,390},
{1,4,6,7,11,12,16,17,18,20,22,25,27,28,30,32,33,34,35,36,37,40,41,46,47,49,51,55,57,64,66,68,69,70,71,74,76,77,79,80,81,82,83,86,87,89,90,92,95,97,99,101,103,104,105,109,112,117,119,120,125,128,131,133,134,135,136,137,138,139,140,145,149,154,158,160,163,165,166,168,174,175,176,178,182,185,187,189,190,192,194,196,197,199,200,201,204,206,209,211,213,218,219,220,224,225,226,228,230,231,232,234,239,242,243,248,249,250,251,253,254,257,258,259,260,263,266,267,268,269,270,271,272,280,284,285,286,287,290,296,300,303,304,305,306,309,311,313,318,319,320,324,325,329,331,334,337,340,341,343,346,347,351,352,354,355,357,359,362,365,368,369,372,375,376,379,381,382,384,386,387,396,397,398,400,401,406,407,408,409,410,411,414,415,417},
{4,5,6,10,12,13,16,17,19,22,23,26,27,30,32,33,34,38,41,47,49,55,56,63,65,67,70,71,72,74,76,78,83,85,87,89,90,92,93,96,98,100,102,104,107,110,116,117,119,120,122,128,129,134,135,138,139,143,144,150,154,155,156,157,158,159,160,161,162,163,166,167,171,172,176,177,178,179,181,182,184,187,188,189,190,192,194,195,196,200,201,209,210,211,216,218,221,222,223,224,233,236,237,239,243,245,246,248,250,251,252,253,260,261,262,265,266,267,277,279,282,283,284,285,297,298,299,300,304,311,315,317,319,320,325,326,327,333,334,335,339,341,342,353,354,356,357,358,359,360,361,369,371,374,375,379,381,384,386,388,390,392,394,395,399,406,410,411,413,415,417},
{1,2,5,6,8,9,10,11,12,13,18,22,23,27,30,31,33,34,41,42,45,48,50,54,56,59,60,61,62,64,65,68,71,72,73,75,77,78,81,82,84,85,88,89,92,95,98,100,101,103,105,107,110,118,119,121,126,128,132,135,136,139,140,141,144,145,149,150,154,157,158,160,161,162,173,177,178,180,184,189,190,191,193,194,195,198,199,205,208,209,210,211,212,216,221,223,224,229,234,236,237,239,240,243,245,247,250,255,256,258,259,261,262,263,266,268,273,278,281,284,285,292,297,301,305,306,308,309,310,314,316,317,319,322,323,324,327,328,332,337,338,344,349,350,352,353,354,355,358,359,362,363,364,368,370,376,378,386,387,389,390,392,395,397,401,402,406,409,411,414},
{1,2,3,4,7,8,9,12,13,14,19,21,27,28,30,32,33,39,42,43,45,46,47,50,51,52,53,55,56,57,60,66,67,69,71,73,74,76,78,80,82,83,85,87,90,91,94,95,97,99,100,101,103,105,108,115,116,119,122,123,127,131,132,135,136,141,146,147,152,153,155,156,161,164,165,166,168,170,171,172,174,175,176,181,185,188,189,190,193,194,196,197,199,200,201,203,205,206,209,217,221,223,229,233,235,239,240,243,244,245,247,249,253,256,257,258,260,261,264,266,268,269,272,274,278,279,285,286,288,292,293,294,297,300,301,302,304,307,308,312,315,316,319,322,323,325,326,330,331,332,333,335,336,338,342,345,346,349,352,357,360,361,363,364,367,368,370,372,373,374,376,378,379,380,381,382,383,389,390,396,402,404,407,410,411,412,414,415,416,417},
{3,5,6,10,12,13,17,18,22,23,25,27,30,31,34,35,37,38,41,42,45,47,48,53,55,56,57,58,60,61,63,64,65,67,72,73,77,78,79,83,87,88,90,91,94,98,100,101,106,107,109,113,116,117,122,123,129,132,136,138,143,146,149,150,151,153,155,158,163,167,169,170,172,175,180,182,184,187,188,192,193,194,198,201,202,205,208,213,219,230,235,239,240,243,246,248,251,252,254,255,257,258,261,265,266,267,268,271,273,275,277,278,280,281,282,285,288,289,290,293,295,296,297,303,306,309,310,311,314,317,318,324,326,327,329,330,331,332,334,338,339,340,341,342,345,350,352,354,358,359,360,361,362,368,369,370,375,383,384,385,387,388,389,390,392,394,395,400,401,414,415,417},
{1,2,4,12,13,18,22,23,25,26,29,45,47,50,54,55,56,63,64,65,66,70,74,80,81,84,86,90,92,93,96,104,105,107,109,110,111,112,114,118,124,125,127,130,131,133,140,142,143,145,147,148,150,151,154,156,158,159,164,167,168,170,175,176,178,179,180,181,182,184,185,186,187,188,190,191,192,194,196,198,200,203,208,209,210,211,213,214,216,218,221,225,226,229,234,237,239,240,241,245,247,250,257,259,264,265,267,270,271,273,274,277,279,281,291,296,297,304,305,307,309,312,313,318,319,320,324,325,328,329,333,339,340,344,354,355,357,362,365,366,368,369,371,373,376,377,378,381,382,384,385,386,387,388,389,390,392,395,398,399,403,406,416},
{1,4,5,7,9,13,14,16,17,20,27,30,31,34,37,39,41,45,46,47,48,49,56,57,59,63,64,71,73,76,77,78,79,86,87,92,93,101,105,108,109,111,115,117,118,119,120,124,130,134,137,140,145,148,153,156,159,160,164,172,173,179,181,184,187,188,195,198,200,201,202,204,205,211,212,213,214,217,219,220,222,223,227,228,232,237,239,242,247,252,253,258,266,267,268,272,273,274,276,277,278,280,284,285,286,292,293,297,299,300,302,304,305,307,308,309,311,313,315,316,319,320,322,324,329,331,333,342,345,348,349,350,354,355,356,357,359,361,362,365,367,368,375,379,383,386,388,393,395,400,401,402,407,410,412,414,417},
{2,8,9,11,13,20,22,23,24,25,27,28,31,34,35,40,41,42,44,47,48,49,50,51,52,55,58,62,63,71,72,74,76,78,82,94,95,96,97,98,101,103,108,109,112,115,116,117,118,119,120,121,127,129,132,133,137,145,147,148,150,151,153,154,158,159,161,165,167,168,169,170,172,173,179,181,183,184,186,191,197,198,199,200,208,209,212,215,220,221,222,223,232,233,243,250,251,252,253,254,259,260,265,266,268,270,274,278,280,281,282,284,288,289,291,293,295,302,310,312,315,317,319,320,323,325,328,329,332,333,334,337,338,343,349,351,354,355,357,361,366,367,373,374,377,378,381,385,386,389,391,392,395,397,400,401,409,412,414,416},
{4,11,15,18,20,24,26,32,36,38,39,41,43,46,47,48,49,51,52,56,58,59,60,63,66,68,69,70,74,79,83,84,85,86,87,91,95,97,98,106,108,109,112,114,115,116,119,120,121,123,124,125,126,127,130,131,135,138,139,141,143,145,148,149,152,153,155,160,161,164,167,168,169,171,175,179,180,182,184,190,191,193,194,200,201,202,203,204,207,209,211,212,220,223,228,231,232,235,239,241,243,245,246,247,250,251,253,255,259,260,262,263,266,267,269,270,278,290,293,294,296,299,301,308,312,313,314,316,317,323,324,325,327,330,331,332,339,340,341,342,344,345,346,347,350,351,355,356,359,360,361,365,367,371,372,373,374,379,380,382,383,384,385,391,395,396,400,404,406,407,408,409,412,415},
{2,6,7,11,12,19,26,27,28,29,30,31,32,33,34,42,43,46,47,48,49,51,53,54,56,62,63,64,65,66,70,71,73,74,78,79,81,85,86,98,99,103,105,106,108,109,110,117,122,123,128,130,135,136,138,141,143,144,148,149,152,153,154,155,158,160,161,162,167,169,171,175,178,181,183,185,188,194,197,198,199,200,201,204,205,207,209,212,213,218,219,221,225,229,233,234,235,237,238,244,245,249,256,264,265,266,267,269,270,272,274,275,281,285,286,287,289,291,296,297,301,303,306,308,309,310,311,314,315,316,317,320,324,325,327,331,333,334,335,336,338,342,343,348,349,353,357,360,362,365,368,371,372,373,385,386,389,390,394,402,405,410,413,417},
{2,4,5,7,8,17,18,19,21,24,27,28,32,36,37,40,42,43,46,48,49,52,54,57,58,65,67,68,69,72,77,79,81,82,87,88,97,100,107,108,109,113,118,119,121,122,123,125,127,128,129,130,136,139,145,146,147,150,152,153,155,157,160,163,167,168,169,170,171,176,179,182,187,188,192,195,200,204,210,223,230,231,235,238,239,241,242,247,248,252,256,257,259,260,262,263,266,269,270,273,278,280,281,284,290,295,296,300,302,303,306,308,310,311,313,315,317,322,329,335,337,338,347,352,353,356,357,358,361,365,369,371,372,375,376,377,378,379,380,381,383,384,386,390,391,393,397,398,399,400,401,403,404,406,408,410,411,413,415,417},
{2,4,5,6,15,18,23,26,27,28,29,32,33,34,35,38,40,42,44,45,46,51,55,56,57,62,63,66,68,69,74,77,79,83,85,87,89,90,93,95,97,98,101,102,103,104,111,114,122,128,131,133,140,142,146,148,150,151,155,159,162,163,168,169,170,172,175,176,180,184,189,191,198,199,202,204,205,207,211,214,215,220,221,223,234,239,241,242,246,249,251,254,255,257,258,259,260,262,265,266,267,268,270,272,273,277,278,280,281,286,289,290,292,294,309,311,312,313,316,317,319,323,333,338,347,352,355,356,358,361,364,365,367,369,372,377,382,386,387,394,396,400,401,403,407,408,411,413,415,416},
{1,5,8,9,10,11,12,13,15,17,23,25,26,31,33,36,37,41,46,48,49,51,54,57,58,59,61,62,63,67,70,72,74,77,78,83,84,89,95,96,98,100,102,103,105,106,111,116,117,119,121,122,126,127,128,129,130,133,137,138,140,143,145,147,151,152,154,156,160,162,165,166,167,168,172,178,180,182,187,191,193,195,196,198,199,200,204,205,207,208,209,210,213,214,215,217,220,223,224,225,226,230,231,236,238,241,243,249,251,252,253,257,259,263,266,267,274,280,281,282,283,285,287,289,290,292,294,296,297,300,302,303,304,305,306,308,315,316,318,319,322,323,325,327,332,333,334,336,340,343,345,347,348,350,355,356,361,366,367,368,369,371,372,373,375,377,380,382,383,384,388,389,392,393,394,395,401,402,404,405,406,407,408,409,413,415},
{1,4,5,6,7,8,9,11,13,17,20,27,29,30,31,33,35,36,42,43,45,46,48,49,56,59,63,66,68,71,73,76,78,80,81,82,83,85,88,90,91,93,95,96,98,100,102,104,106,110,115,118,124,125,126,128,129,131,133,139,140,147,150,152,156,157,158,161,162,163,164,166,169,170,178,180,182,184,188,192,197,201,202,205,206,207,209,215,224,226,228,232,234,236,240,242,245,247,248,253,255,256,257,260,262,263,266,267,269,272,275,279,281,282,283,285,287,291,293,294,295,298,301,303,305,308,310,312,313,314,315,316,319,322,325,327,330,333,335,339,340,341,345,346,357,364,367,368,372,373,382,384,390,391,392,395,400,402,406,407,409,411,412,414,416},
{1,3,6,7,8,10,11,14,18,20,21,23,26,28,30,33,35,36,41,45,50,51,54,58,63,68,69,70,72,73,74,78,82,83,84,86,89,94,99,100,103,106,109,110,113,115,116,117,119,123,124,125,126,127,129,131,133,135,137,140,142,148,153,157,158,160,161,162,163,164,168,169,171,174,175,176,177,178,185,187,190,191,192,193,196,204,207,209,216,218,224,227,229,231,233,235,236,240,243,244,245,250,252,254,259,261,262,264,266,267,272,274,275,283,285,286,293,294,299,302,304,308,310,311,312,314,318,325,331,332,335,336,337,338,340,341,342,344,346,350,351,353,356,357,359,361,363,366,369,370,377,378,379,381,383,384,385,388,389,390,392,393,394,397,400,401,403,404,408,410,411,412},
{1,3,4,6,7,8,13,14,15,16,17,19,21,32,40,41,44,45,47,50,52,53,54,60,61,63,66,70,71,73,76,78,79,82,83,85,88,89,94,95,99,105,106,109,111,113,115,118,119,121,122,123,125,128,139,140,141,142,143,147,149,151,152,153,155,156,158,159,160,161,162,163,164,165,168,169,170,171,172,173,174,178,180,181,183,186,187,190,192,194,198,200,202,206,207,211,213,215,222,223,228,229,231,243,249,251,260,263,265,270,271,272,275,279,280,282,283,284,285,287,290,293,294,295,296,298,299,301,302,308,314,316,319,320,321,322,324,326,327,328,330,333,334,335,336,338,339,342,344,345,349,352,353,354,357,363,368,371,375,376,378,380,383,384,387,389,390,392,393,397,399,400,401,402,404,407,408,409,411,413,415,417},
{1,4,10,17,25,27,30,39,40,43,46,48,53,57,59,61,64,67,68,69,70,73,76,78,79,81,82,85,86,90,95,96,100,102,104,105,107,113,114,120,124,127,129,130,132,135,143,144,145,151,153,156,157,158,159,160,161,162,163,166,169,172,174,175,176,179,183,187,188,193,194,195,196,202,203,204,205,207,210,211,214,215,220,221,222,225,228,233,235,237,239,243,244,246,247,254,256,258,259,260,261,271,272,275,276,277,281,282,283,285,286,289,291,292,293,297,299,301,304,309,310,311,313,314,315,316,317,322,323,325,331,333,334,335,350,351,354,356,357,364,365,367,373,374,375,376,377,381,382,384,385,386,388,389,391,392,394,395,397,398,405,408,411,413,417},
{1,2,4,18,21,22,25,27,29,30,31,33,34,35,37,39,46,47,49,54,60,62,66,69,71,73,74,75,77,78,79,82,86,87,89,91,92,94,95,96,97,98,99,100,102,103,104,105,108,111,113,114,116,120,121,122,123,124,125,127,131,133,135,136,139,141,144,145,146,149,152,153,155,156,160,161,172,174,183,184,187,188,192,193,195,197,201,202,204,206,207,209,210,211,214,216,218,221,226,228,229,230,232,233,234,238,246,248,249,253,255,257,260,262,263,264,265,272,273,274,275,276,279,281,284,286,292,295,298,301,302,303,305,306,308,310,314,315,318,319,322,324,330,331,332,334,335,337,344,345,346,347,350,351,352,353,354,355,356,361,362,363,364,365,366,369,370,371,374,379,384,389,396,397,402,412,414},
{2,3,9,10,16,17,18,19,20,22,27,28,29,30,33,37,38,41,42,44,45,51,52,55,56,59,65,66,68,71,73,74,75,81,83,85,86,88,92,94,96,98,103,106,108,109,111,117,119,120,123,124,126,129,135,138,139,141,143,144,145,147,149,151,155,161,163,165,168,170,172,174,175,176,177,178,180,182,184,185,187,191,192,193,196,197,199,201,214,217,220,221,223,224,229,231,234,236,239,240,247,248,249,251,254,255,256,257,262,265,271,280,281,282,285,288,292,294,295,301,303,306,316,317,318,319,320,322,325,332,337,343,345,351,357,362,364,366,367,368,374,377,380,381,384,387,391,397,398,400,407,412,413,415},
{3,7,8,10,11,13,15,23,24,30,31,32,33,34,45,52,54,60,62,63,64,65,66,69,70,72,74,76,79,88,89,91,92,93,96,101,108,117,127,128,131,138,140,147,148,150,152,154,155,159,164,173,175,176,178,180,182,184,185,186,188,190,192,193,194,195,198,199,203,207,211,212,214,216,217,222,225,226,227,231,232,233,239,241,244,245,246,248,249,250,251,252,256,258,263,265,266,268,272,273,275,276,277,279,281,283,284,286,287,288,289,291,294,295,298,299,300,301,302,307,310,311,314,315,316,317,318,321,322,323,328,329,330,338,341,342,349,352,355,358,359,364,365,370,371,374,375,377,378,379,380,381,382,384,386,387,391,392,402,404,405,408,410,412},
{2,3,5,8,9,10,14,18,19,20,23,24,25,26,30,36,37,39,44,45,47,48,50,52,60,61,63,69,70,72,73,74,76,81,83,84,89,94,96,97,99,103,104,105,106,109,111,112,116,117,118,120,123,125,128,135,136,142,144,152,154,159,160,161,163,165,166,167,171,179,186,187,189,190,191,194,195,198,200,205,208,210,211,219,221,222,226,229,231,232,236,237,240,245,246,249,250,253,257,258,263,267,268,269,270,271,272,277,279,280,282,285,288,291,292,295,296,297,299,300,301,304,306,309,311,314,315,318,320,322,323,328,333,334,337,342,347,351,355,357,359,361,363,364,365,367,371,372,373,375,376,378,382,387,389,393,395,399,401,404,405,406,407,408,409,413,417,418,419,421,422,430,437},
{2,5,8,10,12,14,19,20,21,28,29,30,31,34,35,36,44,47,49,50,51,53,54,61,64,65,66,67,68,69,70,71,73,75,76,78,79,81,82,87,89,95,96,99,100,105,106,108,111,112,119,121,126,129,132,135,137,138,139,142,143,144,145,146,149,154,160,166,168,171,172,173,177,179,180,183,187,188,189,190,191,192,194,195,197,198,199,200,206,207,215,216,217,219,220,222,227,229,233,237,238,241,243,244,250,252,255,256,257,261,266,273,274,275,277,279,281,283,289,290,295,298,299,301,303,305,306,309,311,313,315,317,322,323,329,333,334,335,336,337,339,340,342,343,347,352,354,355,357,359,361,362,365,369,374,380,381,385,386,388,392,394,395,401,403,404,407,414,417,427,428,432,434,436,437},
{3,4,5,6,7,14,17,21,22,27,29,30,36,38,40,42,45,47,49,50,52,53,55,56,57,58,64,68,69,70,71,72,75,76,77,81,82,83,84,86,91,96,100,105,106,107,108,109,112,114,118,120,124,127,130,138,145,148,154,155,156,163,164,165,166,167,169,171,172,175,176,178,186,190,191,196,201,202,205,207,213,215,222,226,227,228,229,231,237,238,244,245,247,248,254,258,260,261,262,266,267,269,272,274,278,281,283,287,288,291,296,297,298,302,307,309,310,311,312,313,314,315,317,318,326,327,328,329,331,337,338,339,342,344,347,350,359,360,361,362,364,367,370,371,373,374,382,387,389,391,395,396,397,398,399,401,403,404,406,407,408,410,412,414,417,420,421,423,424,426,428,430,433,437},
{2,8,11,12,15,21,22,24,25,26,27,28,31,32,37,40,41,44,47,50,52,55,56,57,59,60,62,64,66,69,76,77,79,80,81,83,84,96,97,99,100,102,108,109,110,111,112,115,116,118,123,125,126,127,129,131,136,138,140,143,144,145,146,147,152,154,157,158,168,171,173,176,180,181,182,185,187,189,190,191,197,198,200,202,204,206,207,211,212,218,219,223,224,225,226,233,234,235,236,238,240,243,244,246,247,249,250,251,253,256,258,259,260,261,262,264,266,270,272,274,275,278,279,281,282,283,286,287,288,289,299,301,303,308,313,315,319,321,322,325,326,329,331,334,336,338,343,344,347,351,354,356,357,360,363,374,375,376,379,380,382,384,386,387,389,390,393,395,401,403,411,414,416,419,421,422,424,425,426,427,431,432,433,435,436},
{4,6,7,8,9,11,12,13,16,17,19,20,24,26,27,30,33,34,39,41,43,46,48,50,51,54,55,61,64,65,69,70,71,72,73,76,78,80,82,87,88,89,91,92,93,97,98,100,103,107,110,117,123,125,127,128,131,134,137,141,143,145,146,147,149,150,151,153,156,157,161,162,163,167,169,170,171,174,176,177,178,181,184,186,187,188,190,191,193,196,198,199,200,204,206,210,214,226,228,234,235,238,239,240,242,243,246,250,251,255,259,260,261,266,268,274,276,278,281,294,296,297,299,300,304,306,309,313,314,315,316,317,320,321,326,329,330,332,336,337,338,339,341,345,346,347,353,355,356,358,359,360,363,367,368,369,370,371,379,384,385,388,393,394,398,400,401,402,403,405,407,409,410,411,413,415,416,423,424,425,426,429,430,432,437},
{1,3,4,5,6,7,9,14,15,16,20,24,25,29,30,31,32,33,35,36,37,40,41,42,43,46,47,48,52,56,59,60,65,66,67,69,70,71,73,75,78,80,82,84,85,87,88,90,91,92,93,101,103,105,108,110,114,120,124,125,127,128,129,130,131,132,133,134,137,139,140,141,143,144,145,146,147,150,152,154,155,163,164,165,166,167,168,172,175,178,180,183,186,195,200,203,206,208,212,214,216,221,224,225,228,235,237,238,244,246,249,252,253,262,263,264,267,272,274,275,276,278,280,281,282,283,284,285,286,287,290,291,295,296,298,299,300,301,302,308,309,310,319,321,322,323,325,326,327,332,333,334,337,339,343,346,347,348,352,357,358,359,360,362,364,365,367,369,370,372,375,377,381,385,386,388,389,390,391,393,396,398,405,410,412,413,417,418,419,421,422,430,431,432,433,436},
{1,2,4,5,8,9,11,14,17,18,20,21,22,27,29,30,33,34,36,38,43,45,47,49,56,57,58,61,73,75,76,77,81,84,88,91,95,98,99,101,102,105,107,109,110,111,112,116,122,123,124,125,127,130,132,136,140,143,144,148,151,152,158,161,162,163,165,166,170,171,172,174,175,179,182,183,184,185,186,187,188,191,195,202,205,206,208,212,213,214,215,218,219,220,225,228,229,235,245,251,254,255,256,257,258,260,262,264,267,271,278,279,282,285,290,295,296,297,299,301,302,303,308,309,312,314,317,318,319,320,322,331,344,346,350,354,355,357,364,366,367,369,370,371,374,382,383,384,387,388,389,391,393,397,399,402,403,405,407,411,413,416,419,420,424,429,430,431,432,436},
{6,8,11,12,15,17,23,27,29,33,35,41,47,50,55,56,60,66,73,76,77,78,79,81,83,90,91,94,96,98,99,102,103,107,109,110,113,116,120,122,123,124,125,126,132,133,135,136,138,141,143,145,151,154,155,156,160,169,170,174,175,179,180,181,185,187,189,190,191,195,197,200,201,203,205,211,213,214,215,217,218,223,225,228,231,232,241,244,245,247,248,249,252,254,257,260,261,262,264,267,268,269,270,273,277,281,283,285,290,292,295,297,300,301,304,307,310,313,316,319,320,323,324,325,326,328,330,331,332,333,334,335,337,339,342,344,345,346,349,350,352,353,354,356,357,359,360,362,365,371,372,373,374,376,377,378,380,383,384,386,389,394,395,399,402,403,404,407,408,417,419,421,422,423,426,429,431,434,436,437},
{5,6,9,10,12,13,15,17,18,20,21,22,27,29,31,43,44,48,49,52,54,56,58,59,62,66,69,70,71,74,79,81,83,88,90,96,98,100,101,102,103,107,109,110,111,113,117,120,123,124,125,129,130,131,132,138,139,146,148,150,151,154,156,157,160,166,167,168,171,174,177,181,182,184,185,190,191,193,195,196,197,198,199,200,201,202,208,212,214,215,216,218,220,221,223,224,230,235,237,239,244,245,247,251,252,253,254,256,261,267,268,269,272,274,277,282,284,286,287,288,289,291,293,294,296,298,301,302,306,313,314,315,318,319,320,322,324,325,327,331,333,339,341,344,348,350,352,355,356,358,359,361,363,365,366,368,369,372,377,382,383,385,386,387,388,390,391,393,394,402,405,406,407,408,410,412,413,414,415,422,423,426,428,429,431,434,436},
{7,8,10,14,15,17,20,21,25,28,33,43,46,50,51,53,55,56,58,59,61,63,66,67,68,69,70,72,74,76,79,80,83,84,85,88,93,94,96,101,103,104,110,114,121,122,123,127,129,130,132,135,136,137,140,141,145,147,149,150,151,157,160,162,165,169,172,176,177,181,182,188,193,197,198,199,200,202,208,210,211,212,215,217,219,223,224,226,228,231,232,233,237,243,244,245,246,247,250,252,254,257,260,261,265,266,267,270,273,275,276,278,279,282,284,285,288,289,293,294,298,302,306,309,312,313,314,316,317,318,323,325,328,333,336,337,340,341,342,345,346,348,354,355,356,358,359,360,362,367,368,369,370,373,375,376,380,382,383,389,391,392,393,395,398,405,407,408,410,415,416,417,418,420,423,425,430,432,433,434,435,436},
{3,4,11,13,14,17,18,22,23,24,25,30,31,33,35,36,41,42,43,45,50,51,52,54,55,56,57,59,60,62,63,65,70,71,73,74,78,79,80,82,87,89,90,92,93,94,99,100,105,108,109,114,115,117,118,119,120,121,129,133,136,138,139,142,145,146,147,149,151,152,154,158,161,163,164,169,175,176,178,179,183,184,186,187,190,192,194,196,199,202,205,207,210,211,212,213,217,220,221,223,226,227,228,230,232,235,237,238,240,242,244,246,247,249,251,253,256,258,259,260,263,268,272,273,277,278,287,293,294,300,301,303,304,308,311,314,315,317,322,323,326,328,331,332,333,334,335,340,342,344,345,348,352,353,356,358,361,365,366,370,374,378,379,388,389,390,393,396,398,403,407,411,413,417,421,422,424,426,428,430,432,435,437},
{1,6,9,10,14,19,21,22,25,29,34,35,40,42,46,47,48,51,54,55,56,58,61,65,66,68,75,76,77,79,83,84,85,86,87,90,91,93,94,98,103,112,113,116,121,123,127,129,131,134,137,139,140,142,144,148,149,158,159,160,163,167,169,170,171,173,175,177,179,186,189,190,196,201,203,208,211,212,213,214,215,217,218,221,223,226,227,236,239,240,241,242,247,248,253,255,257,260,268,269,270,274,281,285,286,289,296,299,301,304,305,309,312,314,315,318,320,322,325,326,332,335,336,337,338,339,342,343,345,346,348,354,357,358,361,364,365,373,374,376,377,378,383,385,388,391,394,395,396,398,400,402,403,405,406,410,411,412,413,414,415,416,417,420,424,431,432,433,435,436},
{1,2,4,5,7,8,10,12,13,16,19,20,22,24,26,28,30,39,41,44,46,47,48,49,50,51,55,61,63,66,71,72,73,74,81,82,83,85,88,89,91,92,93,95,96,98,99,101,104,108,110,112,113,115,117,120,121,123,131,134,139,140,142,143,144,148,153,155,161,165,166,167,168,172,173,174,177,178,180,182,183,193,198,199,202,208,210,211,217,219,224,227,232,235,237,244,245,246,247,249,252,255,260,261,263,268,269,270,272,273,274,275,276,279,280,284,285,286,290,291,292,302,304,306,307,308,309,310,311,312,313,315,316,317,319,320,323,328,329,331,334,348,349,350,351,354,355,359,360,363,366,367,369,370,379,381,383,384,385,386,387,388,389,390,397,400,401,403,407,408,410,413,414,418,421,423,424,426,429,431,432,434,435,437},
{1,2,7,13,14,15,18,20,22,23,25,28,29,30,31,33,34,37,39,43,44,53,55,59,60,61,64,66,67,69,70,71,73,74,76,81,82,84,85,86,90,91,92,93,94,95,97,98,100,101,102,103,110,113,115,117,122,129,135,138,139,140,143,148,149,150,154,155,156,158,162,166,168,173,176,178,180,182,184,188,190,193,195,197,198,202,206,213,216,222,230,232,234,235,237,240,241,247,250,251,254,255,258,259,260,262,264,269,273,278,280,281,288,291,295,298,300,301,302,303,308,310,311,312,313,320,326,328,331,333,335,336,337,338,339,347,349,353,355,357,358,360,361,362,363,365,366,368,370,372,373,375,379,382,383,385,393,394,395,396,407,409,410,415,416,417,419,420,421,425,426,427,430,432,435,436},
{5,7,8,9,10,12,14,15,16,18,21,30,31,33,34,36,40,43,44,46,47,51,52,55,57,58,59,62,63,66,69,81,82,85,89,93,94,95,96,98,99,103,105,108,114,117,126,129,130,131,135,139,141,143,144,145,156,158,168,169,172,174,176,178,181,184,185,187,192,197,199,200,201,202,205,210,215,216,218,220,222,223,225,229,233,237,242,243,246,247,250,252,254,255,256,259,260,261,262,265,266,268,270,274,278,281,282,283,286,290,291,292,294,295,297,298,301,302,309,310,312,314,316,317,320,321,323,325,326,332,336,337,341,344,345,346,347,348,351,352,355,358,359,364,365,366,368,370,375,377,380,381,382,384,385,387,389,391,394,395,397,398,400,401,403,405,406,411,414,417,418,419,423,428,435,437},
{3,4,7,8,9,11,12,18,20,22,23,24,25,27,28,31,33,36,37,38,41,43,44,45,47,48,49,50,53,54,55,58,61,67,69,70,71,72,76,78,81,82,83,85,88,89,92,94,95,96,97,99,100,102,105,106,109,114,116,119,121,126,127,128,130,131,135,136,138,139,140,141,144,147,148,149,155,157,160,161,163,167,168,169,174,175,176,179,184,187,188,189,190,194,200,201,202,204,205,207,212,214,216,218,222,225,226,227,230,235,237,239,244,245,249,251,255,256,259,262,263,265,266,270,271,274,276,277,278,280,281,283,286,288,290,291,296,298,300,302,303,306,310,311,312,314,317,318,322,323,324,326,333,334,335,337,343,344,345,347,349,350,351,365,368,370,371,373,379,388,390,409,410,413,414,416,417,419,420,426,428,429,434},
{2,3,7,11,12,13,22,23,28,29,31,34,35,39,40,45,47,49,58,62,64,65,70,71,76,77,78,80,81,82,84,88,90,96,97,98,99,100,101,103,104,106,107,108,113,116,119,120,121,124,125,126,129,130,131,134,135,139,142,146,150,154,156,157,160,161,162,178,180,184,185,187,191,194,198,199,200,208,209,214,215,216,222,226,228,230,231,232,233,238,240,243,245,246,247,249,250,253,255,256,259,264,266,272,273,275,278,280,281,284,286,287,291,292,293,295,302,303,304,305,306,307,308,309,311,313,315,316,318,319,322,327,328,329,331,333,341,345,346,350,353,354,357,358,361,368,371,372,373,374,378,384,386,388,389,391,394,396,397,403,404,405,406,408,412,413,415,419,421,423,424,425,426,429,433,434,435,436},
{2,3,4,5,7,9,10,11,13,14,16,19,21,23,25,30,32,33,37,38,39,40,42,45,46,48,51,58,59,61,65,68,70,71,72,73,74,75,85,87,89,90,92,93,100,103,106,112,114,115,116,117,118,120,122,125,126,130,133,135,136,139,140,141,145,148,152,156,157,159,160,161,172,176,180,181,182,189,194,196,197,200,201,202,208,210,211,212,213,214,215,217,218,220,223,227,231,233,238,239,241,249,250,251,252,253,254,255,262,267,269,272,273,277,278,279,282,283,287,288,289,291,293,295,297,300,307,308,310,313,314,316,317,318,319,320,321,326,328,331,332,333,334,338,341,344,345,347,350,351,353,356,359,363,367,370,371,372,374,377,380,382,383,386,387,388,394,397,399,407,409,410,411,412,413,415,416,420,421,422,427,428,429,430,433,437},
{2,6,7,8,9,11,12,13,15,18,19,20,21,22,23,26,27,33,34,35,38,44,45,46,55,57,61,64,66,67,69,70,74,76,77,82,83,85,90,91,93,94,95,96,97,100,102,103,104,106,108,110,116,123,128,130,134,135,136,139,140,142,146,148,149,151,158,159,160,164,165,168,173,176,177,180,185,189,191,193,194,202,203,204,207,209,212,213,215,218,220,226,234,237,240,242,243,247,249,250,251,253,256,258,259,262,263,267,268,269,270,273,276,278,280,282,283,285,286,287,289,290,297,301,302,303,304,307,308,309,312,314,316,317,318,319,322,324,326,333,334,342,345,346,347,349,350,351,352,353,355,358,361,363,367,370,375,377,382,384,385,386,387,388,391,394,401,404,405,406,407,408,411,416,419,422,425,428,431,432,433,436,437},
{1,2,10,14,16,18,19,23,24,29,30,32,33,37,38,41,43,44,53,55,59,62,64,69,70,77,78,79,80,82,83,85,86,89,90,93,94,97,99,100,103,105,110,111,113,115,122,124,125,129,131,134,135,137,138,139,140,143,145,148,150,153,156,160,162,163,164,171,176,179,181,184,186,194,198,205,207,208,209,211,212,213,215,216,217,218,219,222,223,224,227,228,229,233,236,237,240,245,247,249,250,254,258,260,261,262,263,267,268,270,272,273,278,279,281,282,288,289,291,297,299,301,304,307,308,309,314,318,319,320,323,325,327,329,331,333,336,339,340,342,345,346,348,349,350,364,367,368,369,372,373,375,382,384,387,388,389,402,403,409,412,414,418,420,424,430,433,437},
{8,10,11,18,28,32,33,36,37,38,42,44,45,47,48,52,53,56,58,59,62,63,68,69,71,75,77,84,89,92,95,97,103,104,105,108,111,112,113,114,117,118,119,124,131,138,140,141,142,145,149,154,157,158,160,162,165,170,172,175,176,179,182,186,187,188,191,192,193,196,197,198,202,208,209,212,220,222,224,225,226,232,233,237,242,250,251,259,261,262,266,269,271,272,275,277,278,279,285,290,291,292,293,294,295,299,302,305,309,311,313,314,315,318,319,321,324,327,329,335,338,341,343,347,348,351,352,353,354,359,362,365,366,369,373,379,380,381,382,383,385,390,393,395,398,399,401,402,409,410,414,416,419,422,427,428,430},
{1,4,5,6,11,12,14,18,21,22,25,29,30,32,33,36,41,42,43,44,48,50,56,59,62,65,66,70,71,72,73,76,78,80,81,84,90,91,93,95,96,98,99,102,108,109,111,113,114,121,122,124,125,126,127,128,130,137,141,143,144,145,149,150,151,152,153,159,163,168,169,171,172,174,179,180,181,183,186,192,195,200,206,213,217,219,221,222,228,229,237,239,242,247,250,251,255,257,259,260,261,264,265,266,273,283,287,288,292,294,295,302,304,307,308,310,312,318,321,323,325,326,327,329,332,334,336,337,339,340,342,343,347,348,350,351,353,354,355,357,358,361,362,363,364,369,370,378,381,383,384,388,389,393,395,396,411,413,415,416,417,419,421,425,426,431,434,436,437},
{3,7,9,10,11,12,15,16,27,28,32,38,39,40,47,51,54,60,62,67,68,69,70,71,72,73,75,76,77,80,81,82,84,86,87,92,93,95,98,102,104,106,107,108,110,114,119,120,123,125,127,128,130,134,136,137,140,141,143,144,146,153,155,156,157,158,159,160,161,163,170,178,179,183,185,186,187,189,190,191,196,197,202,211,212,215,225,228,234,235,237,238,240,245,248,251,252,254,255,257,261,263,264,265,266,267,268,269,270,273,277,278,283,284,286,287,288,290,291,292,293,295,296,297,298,300,301,302,303,304,306,307,310,313,317,318,319,321,322,330,331,332,333,334,339,340,341,343,346,350,351,352,357,358,359,360,361,362,364,369,372,376,377,379,381,384,385,386,387,389,391,394,404,406,409,416,420,422,423,424,431,434,435,436,439,440,441,445,447,449,451,454,457},
{1,6,7,8,9,10,15,17,18,23,28,33,34,35,40,41,42,45,46,55,60,61,63,64,65,66,69,72,73,74,76,80,83,84,85,86,87,97,98,100,102,103,113,120,121,122,130,131,133,134,135,139,141,142,143,145,146,147,150,152,153,155,157,158,159,160,162,163,164,165,167,168,170,171,172,173,174,175,179,180,194,199,204,205,208,209,212,214,215,216,218,219,221,224,226,228,234,235,236,247,249,250,252,254,257,258,260,263,264,265,266,267,268,270,271,272,276,278,279,281,282,285,286,287,288,289,290,291,293,299,300,301,302,303,305,310,311,312,313,318,320,321,322,323,325,335,336,338,339,340,343,346,349,353,359,360,364,369,373,376,380,381,385,386,390,391,392,396,399,402,407,409,411,413,416,417,426,427,428,429,432,434,438,439,442,444,445,446,447,453,454,456,458},
{2,3,4,5,6,7,9,14,18,20,24,26,27,28,29,30,31,34,35,37,46,50,52,54,57,58,59,64,68,72,73,76,77,81,86,88,90,94,97,104,110,112,113,117,128,129,136,137,139,140,142,145,148,151,154,155,156,157,158,159,160,164,166,167,168,170,172,178,179,182,186,187,190,196,197,199,200,205,211,213,214,215,216,222,223,224,225,226,227,230,232,236,243,244,246,249,250,251,252,253,254,255,258,261,262,263,264,267,268,272,275,276,279,280,281,286,290,294,295,296,298,299,300,301,308,309,310,313,315,317,321,322,324,326,327,330,336,342,346,350,351,352,357,358,365,366,367,369,372,385,388,389,390,391,393,397,399,400,402,405,409,412,416,421,422,429,432,433,437,439,442,443,445,447,448,449,450,451,452,454},
{4,6,8,9,11,13,15,17,18,20,21,22,24,26,30,32,34,35,37,38,39,40,41,44,48,49,51,54,57,58,59,60,61,62,64,69,76,78,80,81,84,86,89,90,96,97,101,103,105,109,110,115,119,121,123,124,127,131,132,135,140,147,149,150,151,152,160,161,165,167,171,172,175,176,178,183,184,186,188,191,192,200,202,203,204,208,210,211,212,213,217,219,224,228,229,234,236,239,242,246,247,250,256,259,264,266,268,270,277,278,279,280,283,285,287,289,296,299,301,302,303,309,313,316,319,321,323,327,328,329,330,331,332,333,335,336,337,338,342,344,347,348,349,350,351,361,362,364,365,372,373,374,375,377,382,387,389,390,394,395,397,399,402,403,405,406,409,410,412,413,420,421,424,433,436,437,440,441,442,443,447,448,449,450,452,453,455,456,457},
{1,4,5,10,12,14,15,16,21,22,26,28,29,32,36,37,38,43,44,45,47,50,51,52,53,54,55,56,59,60,61,62,65,67,68,70,72,73,75,78,81,83,84,87,92,97,106,115,118,120,122,123,126,128,133,134,135,137,138,139,143,149,150,152,157,158,161,163,164,166,169,172,177,180,181,185,186,188,189,193,195,197,212,217,222,228,231,234,238,243,244,249,251,252,253,256,257,260,261,264,267,268,269,272,275,282,284,287,290,291,292,295,297,299,301,303,304,305,307,317,319,323,324,326,327,329,335,337,338,339,342,343,345,350,352,357,359,361,362,364,365,366,368,371,375,376,380,383,386,387,388,389,391,392,393,396,398,399,405,407,409,411,413,416,417,418,420,425,426,429,432,436,440,444,448,449,451,452,454,457,458,459},
{4,6,9,13,15,17,20,22,29,30,31,32,34,37,38,40,43,44,46,50,53,54,55,56,58,63,68,69,70,73,76,79,80,81,82,85,86,89,90,92,93,96,99,100,105,107,108,109,110,113,115,117,121,123,124,126,127,132,133,134,137,138,145,146,147,151,152,160,161,162,163,168,172,173,176,178,179,183,186,188,189,191,192,193,195,198,200,201,204,205,208,214,215,216,217,221,234,237,238,240,247,249,250,253,256,262,267,268,271,272,276,280,281,285,286,287,288,289,291,292,293,296,297,300,301,304,310,314,315,316,319,322,325,326,328,335,338,340,341,343,345,349,350,354,359,360,361,362,366,368,369,370,372,375,376,379,381,385,386,389,390,392,394,395,397,398,399,403,404,406,411,414,415,416,418,419,422,424,426,429,430,431,435,438,440,441,442,447,449,454,455,457},
{2,6,8,13,14,15,16,27,30,33,34,37,39,41,44,46,47,48,50,53,56,60,61,64,67,72,73,74,78,83,84,91,93,96,103,104,105,107,112,113,114,115,118,119,122,128,129,130,133,138,141,143,144,145,146,149,152,153,154,156,159,160,161,162,164,166,167,168,171,174,175,179,180,183,185,188,189,194,198,203,208,210,211,213,216,219,224,228,230,236,238,241,242,248,250,251,252,253,254,259,263,267,272,274,275,276,279,281,282,286,287,289,290,293,294,299,303,305,307,311,312,314,316,319,320,324,325,330,336,337,339,341,343,346,349,350,353,355,356,362,363,364,372,373,374,375,380,381,382,383,385,386,387,390,392,404,405,413,414,422,423,427,429,439,441,445,446,451,452,453,455,459},
{2,8,12,13,23,24,30,32,34,36,39,40,43,44,47,49,51,55,58,60,61,62,63,64,66,73,77,79,81,85,88,90,98,101,103,106,107,109,110,111,112,114,115,119,123,127,130,132,136,141,143,145,146,147,148,150,153,154,159,163,164,168,169,170,177,180,185,186,187,188,194,195,196,197,198,201,202,208,209,212,214,216,219,223,226,229,231,233,235,240,247,248,249,252,253,256,259,260,264,267,268,275,276,282,283,287,288,289,293,296,298,301,302,303,305,308,310,312,322,326,329,330,331,332,333,335,337,340,341,344,345,346,347,351,353,354,355,356,358,360,373,375,378,380,381,382,386,387,390,391,392,393,397,398,402,403,404,405,408,415,416,418,419,420,423,430,432,434,436,444,450,452,453,454,457},
{5,6,15,21,22,24,27,29,30,40,42,43,47,48,51,52,55,57,58,59,61,62,63,69,72,75,76,80,82,84,85,86,87,89,90,93,94,95,100,104,106,107,108,112,113,115,123,127,128,134,135,138,139,141,144,149,150,152,154,155,156,161,162,164,165,169,170,173,176,178,188,189,190,192,196,198,200,202,205,206,210,211,213,216,217,219,220,224,227,229,230,234,235,240,241,242,245,249,250,251,256,257,259,263,264,266,267,268,269,270,272,275,277,282,285,286,287,289,290,293,299,302,303,304,308,309,311,316,319,320,326,327,328,333,335,337,339,342,343,346,349,351,353,354,357,360,363,365,368,369,370,372,374,375,377,379,381,385,389,391,392,393,394,396,400,401,402,410,412,413,415,416,417,420,423,430,431,432,434,439,440,441,442,443,445,446,457,458},
{3,5,6,7,9,11,13,14,16,20,21,24,26,27,31,38,39,43,44,47,48,49,50,55,56,58,61,62,68,71,72,74,76,77,92,93,97,98,99,100,102,103,104,105,109,111,119,123,125,127,128,131,133,134,135,139,141,143,144,147,152,157,160,167,169,171,181,183,184,188,190,192,194,197,200,202,204,205,207,208,211,212,215,216,218,224,225,228,229,230,234,237,239,244,245,253,254,257,261,262,263,264,267,268,269,271,273,274,276,277,281,283,286,293,294,295,297,298,300,303,309,310,313,314,316,317,329,330,331,333,338,339,340,341,343,346,347,349,350,354,357,358,367,371,386,393,394,395,397,398,404,406,409,411,416,417,420,421,423,425,427,429,433,436,437,440,444,445,446,449,451,454,455,457},
{1,3,12,19,20,21,22,23,24,27,29,32,33,35,37,38,41,43,44,47,50,52,53,62,63,65,68,69,70,71,72,73,74,75,80,83,95,96,97,99,101,103,106,107,111,117,119,121,124,126,131,134,137,138,143,145,148,151,152,156,162,163,164,166,170,171,173,174,178,179,189,190,191,194,196,198,201,203,205,210,211,212,214,221,222,223,226,228,229,230,234,238,239,241,242,248,251,252,253,254,256,262,264,265,267,268,273,274,276,279,281,283,285,291,292,297,299,300,305,308,311,314,315,319,321,325,327,328,329,334,336,338,347,349,352,353,355,357,358,360,361,363,366,370,372,373,374,375,378,381,383,388,394,397,403,404,410,417,418,422,423,425,429,432,433,434,435,436,439,441,442,444,448,449,451,452,458,459},
{2,6,7,12,14,15,20,22,23,26,29,31,35,40,41,42,43,44,46,47,49,52,53,54,55,58,64,67,70,73,74,80,81,83,85,88,90,91,93,96,98,99,101,102,103,104,106,107,109,111,113,114,115,129,130,135,137,140,143,144,146,148,150,152,156,159,161,163,169,171,175,176,177,178,179,180,186,187,190,192,193,194,195,198,199,204,206,208,212,215,216,217,224,225,228,230,233,235,241,245,247,251,252,254,256,257,259,263,264,265,267,272,281,288,293,296,300,302,306,307,311,313,315,316,320,322,325,327,330,331,336,338,339,341,342,351,354,357,360,363,365,366,367,369,373,380,381,385,386,390,391,397,402,404,407,409,413,414,415,416,417,420,421,422,425,426,431,439,440,441,442,444,445,449,450,453,454,456,457,458},
{2,3,4,10,12,16,17,20,25,27,28,29,36,47,51,57,58,60,63,64,67,68,69,71,72,76,78,80,81,82,84,93,96,97,100,102,104,105,115,119,121,123,125,129,133,136,137,141,142,143,147,153,161,163,167,170,172,173,175,176,182,186,187,188,190,192,193,194,196,198,206,208,209,211,216,219,221,224,229,232,234,240,242,246,247,249,254,257,260,261,265,267,270,271,272,276,280,281,282,286,288,290,292,294,295,297,298,300,302,303,308,309,322,325,326,327,328,329,331,333,341,345,346,348,349,352,353,354,356,360,361,365,367,368,369,371,373,379,380,382,385,387,388,398,399,405,408,411,412,420,430,431,434,435,437,439,442,445,446,451,454,457,458},
{5,7,8,9,11,14,17,18,23,24,28,33,35,38,43,46,47,53,54,55,57,58,60,62,67,69,70,71,73,75,76,79,83,84,86,88,90,92,93,98,99,100,108,116,120,123,126,127,128,130,133,135,138,140,143,144,145,148,150,153,156,158,159,160,165,167,173,175,176,177,178,179,180,182,187,188,190,192,197,199,201,203,205,207,210,211,212,213,221,222,224,230,232,233,234,235,247,248,249,250,251,253,255,259,261,263,264,267,268,269,272,274,278,280,283,285,286,289,291,295,296,301,314,316,319,323,328,330,332,333,337,338,339,341,343,345,346,347,350,352,357,358,359,360,362,363,370,371,372,373,376,379,380,385,389,391,395,400,403,404,406,407,408,409,410,411,412,413,414,420,423,424,425,426,428,429,431,432,433,435,437,443,445,447,449,458},
{3,5,8,10,13,14,15,17,20,22,24,25,26,27,34,35,44,45,46,47,49,50,51,55,56,58,59,61,62,63,65,66,67,69,71,73,77,79,85,90,91,96,97,98,99,100,101,102,108,112,113,115,117,120,124,126,128,129,130,131,133,139,140,142,149,152,155,158,161,162,163,164,168,174,176,178,181,182,184,186,187,189,191,193,194,199,202,209,212,213,218,220,221,226,227,230,231,232,234,235,241,243,245,246,247,249,251,252,256,258,259,261,267,268,269,271,272,276,277,279,280,286,287,292,296,299,301,305,307,309,310,313,318,320,323,326,327,328,329,331,332,333,334,336,338,340,341,343,345,346,349,358,359,363,365,366,368,369,370,372,375,376,377,378,379,380,381,384,385,387,390,395,396,402,403,407,410,411,413,414,418,423,425,426,428,433,434,438,439,442,443,446,451,453,454,456,458,459},
{2,3,6,8,10,11,14,17,19,20,21,24,27,28,31,33,38,39,43,48,49,51,54,62,63,65,66,67,70,73,74,76,87,88,92,94,96,97,98,101,102,104,107,108,109,110,111,112,113,115,119,122,125,126,128,131,141,145,147,150,151,154,155,157,167,168,170,175,179,186,187,190,193,195,197,199,200,209,214,217,218,221,222,226,228,231,232,233,234,236,237,245,256,257,259,264,271,277,282,285,286,292,295,298,299,301,303,307,309,311,313,318,319,321,322,324,325,328,331,332,337,338,340,342,344,347,348,349,351,352,360,362,363,366,371,372,374,376,377,380,385,387,388,389,394,397,399,401,404,405,406,416,417,419,420,421,425,426,427,429,430,435,439,440,442,443,445,449,450,452,454,455,456,458},
{2,6,7,8,11,12,16,17,19,20,23,28,29,30,32,34,35,38,40,51,56,58,59,61,62,63,64,68,72,73,74,76,78,79,87,90,93,95,98,100,101,107,111,112,116,117,120,126,127,132,133,134,136,137,138,139,140,142,144,146,150,151,152,153,154,157,164,166,168,169,170,173,177,179,181,182,183,184,187,189,190,191,192,194,196,197,198,200,202,203,204,206,207,208,214,215,216,223,224,227,229,231,234,238,239,240,241,246,249,250,251,252,255,259,260,262,263,265,266,268,270,274,275,278,283,287,291,293,294,297,299,300,301,304,305,307,308,311,312,313,322,329,331,334,335,336,338,339,341,342,347,349,351,353,359,360,361,374,375,376,378,383,385,390,394,396,398,401,406,407,411,414,420,422,423,425,426,427,433,434,436,441,442,444,445,446,450,453,454,456},
{3,5,10,11,16,17,22,23,31,37,39,41,46,47,49,50,51,52,56,59,61,63,69,70,73,78,81,83,87,88,89,90,92,96,101,106,115,116,122,123,126,127,130,133,134,137,141,145,146,161,164,166,169,170,173,174,176,178,179,180,191,197,199,201,208,209,216,217,222,223,225,227,229,230,231,234,244,246,248,249,250,253,254,259,260,262,264,265,268,269,270,272,275,277,284,287,290,291,294,299,323,324,326,327,329,330,331,334,336,337,338,339,341,343,346,347,348,350,351,352,355,357,359,362,363,368,374,376,377,381,382,384,385,390,392,393,396,397,399,402,403,405,408,410,411,413,414,415,422,430,431,434,442,444,445,450,453,454},
{2,4,9,10,11,12,13,15,16,18,19,20,24,27,28,33,34,40,42,45,46,47,49,53,62,68,74,75,76,77,80,81,83,85,87,89,90,91,92,96,104,105,107,108,109,110,113,114,116,118,119,121,122,128,131,133,138,139,142,143,152,156,157,161,162,164,169,171,172,173,175,176,177,183,189,190,191,198,200,201,202,203,204,205,206,207,208,212,217,220,221,225,226,228,230,232,233,234,235,242,243,246,247,248,250,251,253,255,258,259,260,261,263,264,268,269,271,272,276,278,279,283,284,285,287,292,294,295,298,299,304,305,308,312,313,315,316,317,318,319,321,324,326,335,337,345,349,350,351,352,353,354,355,357,359,360,361,362,365,369,370,372,373,375,378,379,383,384,390,391,392,395,397,398,401,413,416,420,424,426,433,442,443,444,445,448,449,454,455,456,458},
{1,3,5,6,7,9,10,14,16,23,24,28,32,33,35,36,40,43,46,50,53,54,55,66,68,69,75,78,80,81,86,91,98,99,101,102,104,107,110,111,113,115,116,119,124,126,128,132,134,139,143,145,146,147,150,151,152,157,164,166,168,170,174,177,179,180,182,183,184,187,192,194,195,199,200,201,203,205,207,209,210,211,213,214,217,219,221,232,233,234,235,242,243,244,246,247,248,254,256,257,258,259,260,261,266,268,269,271,274,275,277,279,280,281,285,287,289,290,293,295,297,301,303,306,307,309,310,316,317,321,324,328,330,333,334,336,337,340,341,343,345,347,348,351,353,355,356,358,359,362,364,366,368,370,374,375,376,382,388,389,390,393,396,399,402,404,405,407,408,410,411,416,418,421,422,424,426,430,433,436,437,438,439,441,442,443,447,449,451,452,454,459,460,461,462,467,470,471,473,475},
{4,5,12,16,21,26,27,28,29,31,36,37,45,47,48,54,57,58,59,60,64,66,67,70,73,76,79,80,81,83,85,86,90,91,93,96,103,106,107,109,110,113,115,117,119,121,124,128,129,132,133,134,137,138,140,144,149,150,153,154,156,157,159,161,162,163,165,166,167,168,174,175,182,185,186,189,190,193,195,198,201,203,205,216,221,222,223,224,225,229,232,233,234,237,239,240,242,243,245,247,248,249,250,255,261,262,270,272,273,276,279,280,283,290,291,297,301,302,309,310,311,312,313,314,317,320,321,322,325,327,329,331,340,342,345,346,352,353,354,355,357,358,361,364,365,369,371,373,374,380,381,383,384,387,388,391,394,395,398,401,402,405,406,407,410,411,412,414,415,416,421,425,426,434,440,441,442,444,445,448,449,450,451,452,453,457,459,460,462,464,465,466,467,468,476},
{1,9,10,12,19,20,21,23,24,26,27,29,34,36,38,44,47,50,57,58,60,62,63,65,68,70,72,74,77,78,81,84,85,86,88,89,90,93,94,95,103,105,106,111,113,117,118,120,122,124,126,133,137,139,140,143,145,146,147,148,150,153,155,156,160,162,164,166,167,170,173,177,178,180,182,184,189,190,196,198,199,200,201,202,204,207,208,211,214,216,218,219,222,228,231,235,237,238,242,245,246,248,250,251,256,258,260,261,262,266,267,269,270,279,282,283,287,288,289,293,297,299,302,309,310,311,314,318,320,322,323,326,329,334,335,337,339,340,344,351,353,356,358,360,362,364,370,371,373,374,377,379,380,381,386,387,388,389,392,394,396,399,403,404,408,409,410,411,412,414,418,420,421,426,427,428,433,439,441,442,445,452,454,456,457,460,465,466,467,468,470,472,473,477},
{4,9,10,11,14,18,21,23,28,30,36,39,41,42,44,45,47,50,53,56,61,62,65,69,70,71,74,80,81,85,87,88,93,95,96,97,99,100,101,102,103,107,108,110,112,116,120,121,125,126,127,131,133,139,140,145,153,155,157,158,161,162,169,174,176,179,183,184,185,189,190,193,197,198,199,202,207,208,209,210,214,215,217,222,223,225,227,229,234,237,239,240,244,246,252,254,255,256,259,260,261,262,263,265,267,269,270,272,273,274,276,278,280,290,293,294,295,297,298,299,300,303,304,305,309,313,319,321,324,333,334,336,340,342,344,349,352,355,361,362,367,368,369,370,373,374,378,379,387,397,398,401,409,417,422,423,425,427,429,433,434,442,444,450,451,452,459,460,461,462,463,464,466,467,470,471,474},
{2,8,9,10,15,19,21,22,28,29,30,33,34,39,41,44,47,48,50,51,52,53,58,60,61,63,64,72,73,74,75,76,79,82,83,84,85,86,89,90,94,95,99,100,103,104,105,107,108,110,112,115,119,120,122,124,127,130,131,132,140,141,142,149,152,156,157,158,160,162,167,176,180,182,183,184,185,187,189,190,191,194,196,197,201,203,205,206,213,214,221,223,224,228,230,231,236,239,241,244,245,248,262,263,269,277,281,283,285,286,290,292,299,300,303,304,305,307,309,310,311,312,314,317,318,321,323,334,335,337,340,341,342,350,352,353,355,356,358,360,367,368,370,376,379,380,381,383,386,387,388,395,397,398,399,400,402,403,404,406,407,408,410,411,413,415,422,425,428,430,433,434,437,438,439,443,444,445,449,451,453,459,462,464,468,470,472,475,476,477},
{1,3,4,5,7,9,12,14,15,16,18,19,23,24,32,34,35,41,42,50,52,56,69,70,72,77,78,79,83,87,90,92,93,94,97,98,99,100,101,109,112,113,116,117,119,122,123,125,129,131,132,133,135,137,139,141,142,143,144,145,146,148,151,152,153,155,159,162,163,167,168,170,171,175,176,179,182,183,187,189,194,195,196,198,199,201,203,206,208,211,213,214,220,222,224,225,227,229,230,233,235,236,238,242,246,247,250,254,260,264,268,269,270,273,274,276,277,278,279,286,288,289,290,291,293,296,297,299,301,302,304,305,309,311,313,314,315,318,320,321,322,323,324,327,330,331,332,333,340,341,347,352,355,358,359,360,361,373,375,379,380,381,382,383,384,385,386,389,391,394,398,405,406,410,412,414,416,419,421,422,425,428,432,442,443,445,449,450,451,452,453,454,457,458,463,466,472,473},
{6,10,11,14,15,17,18,19,24,25,27,30,32,34,35,37,38,43,44,47,53,56,61,65,66,72,74,76,79,80,81,82,85,89,90,92,93,96,98,100,101,104,105,107,109,112,115,117,119,121,122,123,124,125,127,134,139,141,143,144,146,148,150,152,156,160,162,164,165,166,168,170,171,172,174,181,185,187,190,191,193,196,198,200,203,207,208,210,214,218,221,222,223,225,230,231,233,234,235,236,237,238,240,241,242,246,247,250,257,258,260,263,264,266,267,271,272,276,280,282,284,285,290,293,296,303,304,306,307,308,309,315,316,318,319,323,325,328,330,333,335,336,338,341,344,347,350,354,356,357,358,359,360,363,364,365,366,367,377,378,381,383,388,391,392,393,395,397,404,407,408,409,418,419,425,428,432,433,434,438,443,445,451,453,454,455,458,459,460,464,467,470,471,472,475},
{2,4,7,11,12,14,15,19,21,26,27,31,33,34,35,38,39,40,44,46,47,53,57,62,64,65,66,69,72,73,74,75,77,78,79,82,83,89,94,95,97,104,106,108,110,114,116,117,118,120,123,124,127,128,129,132,133,134,136,137,139,140,144,147,149,150,152,153,154,157,160,161,163,164,165,167,176,178,183,184,187,188,195,200,201,203,205,209,212,214,215,217,218,219,223,225,226,230,231,232,234,235,240,242,243,246,247,248,250,252,257,259,260,261,262,264,266,270,275,276,279,280,281,282,284,286,296,299,304,305,306,310,312,320,323,326,327,328,330,333,334,336,340,341,349,350,355,356,357,361,363,364,365,367,368,370,378,381,382,383,384,385,391,396,402,403,408,409,413,415,416,417,418,420,423,424,432,433,436,441,449,450,451,452,456,457,462,464,465,467,472,473,474,475,476,477},
{2,3,4,5,6,9,12,13,14,15,22,25,26,30,31,32,34,38,40,45,47,50,51,58,62,63,64,67,69,74,76,78,79,80,87,88,89,90,91,95,101,107,108,110,111,112,113,114,116,117,121,122,123,127,130,133,136,137,145,146,147,148,149,150,151,152,153,154,156,159,160,163,165,168,173,182,183,185,186,189,190,191,195,198,202,204,213,216,219,222,224,226,228,231,234,237,238,240,246,254,256,259,260,262,264,267,278,280,281,284,285,287,289,290,291,292,294,295,296,298,299,305,308,311,314,315,317,321,324,326,329,331,332,336,339,343,345,346,347,348,349,350,353,355,360,366,367,369,374,378,380,381,382,384,387,388,389,396,399,401,404,406,407,408,411,414,415,417,418,420,421,423,425,427,438,441,442,444,445,447,451,452,454,455,462,463,464,465,468,469,470,473,474,476,477},
{1,4,7,8,13,14,15,18,19,22,23,25,26,27,29,32,37,38,40,41,42,44,51,52,55,59,64,66,67,70,72,74,76,82,84,86,90,92,98,100,102,103,104,105,110,112,113,115,123,125,128,133,137,143,145,150,153,156,159,160,162,163,164,165,169,173,174,175,177,180,181,182,184,186,188,192,193,195,197,203,208,209,211,216,217,220,222,226,232,234,235,239,241,244,245,246,250,251,252,261,265,267,268,269,274,280,281,283,285,293,295,296,299,303,311,317,320,321,323,327,329,332,333,335,337,338,343,344,345,353,354,355,356,358,364,365,367,368,369,371,372,374,376,378,379,380,381,383,385,388,390,391,394,398,402,405,407,412,414,415,416,421,422,424,427,428,430,432,435,438,440,444,445,448,449,450,454,459,460,463,465,467,470,471,474,476},
{3,4,8,11,16,18,19,20,21,25,26,29,42,45,46,47,50,54,55,60,64,66,72,74,75,76,77,82,83,87,91,93,95,96,97,98,107,112,114,118,120,122,125,131,134,136,137,138,143,145,147,148,149,152,153,154,155,161,162,163,165,167,168,169,170,174,175,176,177,179,181,188,189,194,196,197,199,206,208,210,216,218,219,220,221,222,226,228,229,230,232,233,236,241,243,246,247,249,251,254,256,259,260,262,265,267,269,271,278,281,285,286,287,288,289,290,293,297,299,300,309,313,315,316,321,322,323,332,333,334,335,337,346,348,354,359,360,361,363,364,365,367,368,370,373,377,379,386,387,388,390,391,394,399,400,404,405,406,407,409,410,411,412,414,416,417,418,423,425,426,432,433,437,441,442,444,446,447,449,450,454,455,461,462,463,464,466,468,472,473},
{1,4,5,6,8,17,20,24,26,28,30,31,32,33,34,37,38,39,41,46,48,49,51,54,56,61,62,63,64,67,69,73,76,77,79,80,81,82,83,84,85,86,87,88,89,93,95,103,104,105,106,109,111,113,115,116,131,132,134,138,142,144,145,146,148,151,152,153,154,156,157,159,162,166,167,168,171,172,176,177,178,179,189,190,193,197,201,204,207,208,211,212,215,217,218,219,222,224,227,231,237,238,241,243,244,248,249,250,251,254,255,256,257,258,259,260,263,270,273,277,278,281,285,286,289,291,293,294,295,297,301,302,303,304,305,306,307,308,310,311,314,315,317,319,322,323,324,325,326,331,333,337,338,352,354,356,357,358,360,361,362,364,367,368,370,376,377,379,380,382,384,385,389,392,394,395,398,399,402,404,405,414,415,417,418,419,420,421,422,424,425,428,430,435,437,442,444,447,448,449,450,455,458,459,461,464,470,478},
{2,3,5,9,10,13,16,20,21,23,27,28,30,36,37,41,42,44,50,53,55,59,60,61,62,63,64,66,67,69,72,73,74,78,79,89,90,91,94,98,99,101,105,106,110,112,115,117,122,129,130,136,139,142,143,144,148,157,159,160,161,162,168,169,171,173,174,176,177,179,180,181,183,184,189,193,197,202,207,210,211,213,215,219,220,224,225,228,233,238,240,242,243,244,247,248,249,251,252,253,255,256,257,258,259,266,269,272,278,285,286,287,289,290,292,295,298,299,301,302,306,309,310,311,314,316,318,321,323,326,327,329,330,331,333,339,341,350,351,355,357,358,359,361,362,366,367,370,371,372,374,377,380,383,387,388,389,392,396,397,398,401,407,410,412,414,415,416,418,423,424,425,426,427,428,431,432,433,434,443,444,446,447,451,452,456,460,461,462,466,467,470,471,472,473,476,478},
{6,7,8,11,12,20,21,22,25,28,30,38,40,46,47,48,50,51,56,57,64,65,68,70,71,74,75,76,79,82,86,95,98,100,101,102,108,112,122,123,124,129,134,136,137,141,144,151,154,163,166,167,168,169,170,174,177,178,180,181,185,188,190,192,193,197,202,204,209,214,217,220,222,223,234,236,240,241,242,243,246,251,252,253,255,256,257,259,263,264,267,270,272,273,279,284,285,288,289,292,293,294,295,296,298,299,300,303,304,310,312,315,317,320,321,322,324,327,332,333,336,338,342,343,350,353,357,358,359,361,366,373,375,379,380,382,383,386,389,396,399,401,402,403,404,405,407,409,414,415,416,421,424,425,427,429,431,437,438,440,444,445,449,451,453,454,455,456,457,459,460,465,468,470,473,474,476,478},
{2,4,8,11,12,13,20,22,23,26,28,32,33,35,38,39,43,46,48,52,53,54,55,57,58,59,61,63,64,65,74,76,81,85,87,88,89,90,94,95,98,99,100,101,108,111,112,117,118,119,121,122,125,126,128,129,132,140,141,142,143,145,148,149,151,155,157,161,162,163,165,166,170,173,175,176,177,179,180,181,183,185,188,193,195,197,200,203,207,209,210,215,218,220,221,222,226,228,229,230,231,237,238,241,246,247,249,251,255,259,263,266,271,273,277,284,285,288,290,291,296,298,299,300,301,303,306,308,316,319,322,325,329,332,333,334,335,337,340,344,345,352,353,356,358,359,360,362,363,364,365,367,370,371,374,375,377,380,381,386,387,388,389,391,393,395,396,397,398,399,400,402,404,405,407,410,416,418,421,422,428,431,435,436,437,439,441,442,443,445,446,447,448,450,457,460,462,464,470,472,477,478},
{1,3,6,7,11,12,13,14,17,18,19,23,25,27,29,36,40,42,43,44,47,49,51,52,56,57,61,65,67,74,75,77,81,83,85,88,89,91,93,94,95,96,97,100,103,105,107,109,112,114,115,116,119,122,123,128,131,132,133,134,136,139,141,143,144,149,150,154,156,159,162,163,164,166,172,173,175,177,183,193,198,199,202,203,207,208,211,212,213,214,217,220,223,225,226,227,228,229,230,232,239,254,259,260,262,263,265,266,267,271,272,274,278,279,282,283,285,286,288,290,291,292,295,299,301,304,306,307,309,311,312,313,314,315,316,320,321,326,327,329,330,335,338,341,348,350,352,353,355,357,361,363,364,365,369,373,374,376,378,379,381,382,383,384,385,389,394,397,398,399,400,403,407,408,410,411,414,420,421,423,425,426,428,430,432,433,435,436,437,442,444,446,448,452,453,458,459,460,469,471,472,474,479,484,492},
{4,5,6,11,12,16,18,21,24,25,26,27,28,29,30,33,41,42,44,47,51,52,56,60,63,64,65,69,71,73,74,75,78,83,84,88,92,93,104,105,108,109,112,114,119,121,124,126,127,128,130,138,150,155,158,159,161,163,164,165,169,173,174,176,177,180,181,188,192,194,197,199,202,204,205,207,209,210,211,216,217,219,223,224,225,232,234,237,241,242,243,245,246,250,254,261,264,265,266,267,269,270,274,277,279,281,282,288,293,294,295,296,299,303,304,305,311,314,317,322,323,325,326,330,334,335,338,341,342,346,349,352,353,356,357,358,361,374,375,376,378,384,385,388,391,392,393,394,395,399,400,401,402,408,410,418,423,425,427,428,433,437,438,439,441,446,448,449,450,454,457,458,461,462,464,466,469,472,474,477,478,486,489,493},
{1,4,5,12,13,18,23,26,29,30,31,32,35,36,41,42,43,47,48,50,52,57,63,64,66,68,70,72,78,80,81,82,83,85,87,89,91,94,95,97,99,102,103,107,108,109,113,116,117,120,125,128,130,132,134,135,139,141,149,150,152,156,158,159,164,169,170,172,175,179,182,184,185,186,187,191,193,201,205,207,208,210,211,212,213,224,226,227,228,232,234,236,237,238,240,241,244,248,253,256,260,264,266,267,268,274,275,276,278,283,284,287,296,303,309,312,315,318,323,324,325,326,329,330,333,334,336,337,338,343,344,345,347,351,353,354,356,358,360,365,368,370,372,373,377,378,385,390,392,394,398,399,401,402,406,410,414,415,418,420,421,423,428,430,433,434,435,436,443,454,456,459,462,464,465,466,467,470,475,478,485,486,489,492},
{3,4,13,14,18,20,24,25,31,36,37,43,50,51,52,54,55,56,57,58,60,63,65,67,70,71,73,75,76,77,80,82,86,90,93,94,95,96,97,98,100,101,102,107,112,113,115,119,120,122,123,124,125,126,128,130,132,133,135,140,141,144,146,147,152,154,163,165,168,169,171,172,173,174,181,183,185,186,188,190,192,193,197,198,200,201,202,203,205,210,211,212,214,218,229,232,233,236,237,241,242,249,251,253,254,264,265,266,271,273,274,275,276,280,281,282,285,288,290,291,292,293,298,302,303,304,309,310,311,314,315,317,319,321,322,325,326,329,330,335,337,339,342,343,345,347,349,351,353,356,359,362,367,370,372,375,376,377,378,380,382,383,385,390,394,400,402,404,405,406,415,419,424,426,427,429,435,436,440,445,449,450,451,452,454,456,457,462,464,465,466,467,468,469,471,477,478,484,485,486,487,488,492},
{2,3,7,8,10,13,14,16,17,19,22,23,29,30,32,33,34,37,38,39,46,48,49,50,53,54,56,57,58,61,62,66,70,71,72,74,75,76,85,86,87,90,91,92,94,95,102,104,105,108,111,112,113,115,116,118,119,121,124,128,135,137,138,140,144,148,151,153,158,159,160,161,163,167,168,172,173,174,175,181,186,187,188,194,197,200,204,205,206,208,211,212,213,215,217,218,220,222,224,227,228,230,231,237,239,240,241,243,244,248,251,253,254,256,258,259,260,261,262,263,264,265,267,273,276,278,279,284,287,291,293,295,296,297,298,299,300,303,304,305,306,309,311,313,316,320,321,322,324,325,327,330,331,332,333,334,335,342,343,344,345,347,348,351,353,355,356,357,359,364,365,366,368,369,370,372,374,378,382,383,384,385,388,391,392,393,394,395,398,407,411,413,415,420,421,424,425,427,428,429,430,431,432,434,437,439,442,443,445,446,448,449,450,460,462,465,466,472,475,480,481,483,485,492},
{2,7,8,11,12,18,19,20,22,26,31,32,35,36,39,41,43,46,48,51,52,53,55,56,58,62,63,64,65,67,68,70,77,84,94,95,96,100,101,102,106,107,111,116,119,124,125,126,127,129,133,136,145,149,151,155,156,165,166,170,175,176,178,180,181,183,184,186,187,189,191,193,195,198,200,210,211,213,214,219,220,225,226,229,231,234,237,238,239,240,241,245,246,248,250,252,253,255,256,258,264,266,267,270,273,274,279,280,281,290,291,292,296,297,300,303,307,308,310,311,313,316,321,323,329,330,331,333,334,339,341,342,348,350,352,354,355,365,366,368,369,370,375,376,378,384,386,388,391,393,398,399,402,405,411,413,414,418,420,426,428,429,431,436,438,442,445,446,447,449,453,454,459,461,463,464,474,475,476,477,479,480,482,485,486,488,489,491},
{5,8,11,15,18,19,25,29,32,33,37,38,44,46,48,49,51,52,53,55,56,57,60,61,65,67,73,77,78,81,82,85,86,88,92,93,94,100,102,103,104,110,111,114,118,119,120,121,124,130,132,136,141,142,144,147,148,150,155,156,166,168,169,171,173,176,177,179,180,181,184,188,189,191,192,193,195,196,197,200,201,204,206,214,217,220,221,222,228,237,240,242,244,246,248,249,250,255,260,261,265,267,269,271,273,275,276,280,282,288,291,295,301,304,305,306,307,308,309,312,318,319,324,325,326,328,329,332,335,336,340,341,342,346,347,349,352,355,356,357,358,360,364,365,366,368,370,371,377,380,382,383,385,390,392,399,400,405,406,408,410,412,415,417,420,422,423,428,437,438,443,444,446,448,449,450,451,454,455,458,460,467,468,470,472,473,474,475,478,481,487,489,493},
{2,4,5,9,11,14,16,25,29,30,31,34,37,38,40,41,42,43,45,46,54,55,58,61,62,63,65,66,69,70,73,76,82,84,86,88,90,92,98,102,105,106,107,108,109,111,115,117,119,120,121,125,128,130,132,137,138,139,140,142,143,144,145,147,148,150,152,158,161,164,168,169,171,172,173,174,180,182,183,184,191,193,196,198,199,204,211,212,214,215,216,222,227,228,229,231,234,235,239,245,246,251,252,253,259,260,262,263,264,266,267,269,270,271,272,273,276,277,279,281,282,283,284,290,296,297,299,300,301,302,303,306,307,308,309,315,316,321,329,331,332,333,334,337,339,340,342,345,346,347,348,349,350,352,353,354,361,362,363,369,370,372,373,375,376,377,382,384,387,388,389,391,392,394,395,398,401,403,405,407,409,411,413,416,417,420,423,425,433,434,436,439,440,441,442,444,446,448,450,454,459,461,465,466,467,473,474,476,477,481,486,492},
{1,3,5,8,17,18,25,29,35,36,38,39,40,44,46,48,51,53,58,59,62,66,70,72,75,81,90,91,96,98,100,102,104,105,106,107,108,110,113,114,117,123,124,128,129,131,133,134,140,143,144,145,146,153,156,159,163,168,170,172,173,178,180,181,186,187,191,193,194,195,197,198,199,201,208,213,217,218,219,221,223,231,234,237,239,240,243,244,245,246,248,249,254,256,260,261,262,269,273,274,276,277,278,280,286,289,290,291,292,293,300,301,312,314,315,319,330,333,341,342,343,346,347,349,350,355,360,363,365,366,369,370,374,376,381,389,390,391,392,400,402,404,407,412,413,416,417,422,423,424,427,430,433,434,437,442,443,444,449,452,454,458,460,461,465,466,467,471,472,478,479,480,481,482,489,490,491,492},
{3,6,8,10,11,12,14,17,19,20,23,30,31,41,42,43,45,46,51,56,58,60,61,62,63,66,68,69,75,76,77,78,81,82,83,84,85,86,87,89,94,95,96,98,102,103,104,106,114,120,123,127,130,134,135,137,139,140,141,143,144,146,147,149,150,152,154,155,156,161,163,164,169,171,176,178,182,186,187,192,194,196,197,198,199,201,203,205,206,207,208,211,212,216,218,221,222,224,226,228,230,231,236,238,239,241,242,243,246,247,251,252,254,256,258,260,261,263,266,267,269,273,276,283,285,287,289,293,294,295,297,298,299,305,306,307,313,316,320,321,323,325,326,327,332,338,339,340,341,342,344,350,355,360,363,364,366,370,371,377,381,384,385,393,395,396,399,402,409,411,413,414,415,416,417,420,423,425,426,427,428,429,432,433,437,439,440,441,443,448,451,454,455,456,457,459,460,463,465,466,467,468,470,473,474,475,478,480,482,483,484,487,488,490,492},
{1,3,4,7,8,10,11,15,19,22,26,27,30,31,34,36,37,40,44,47,52,56,58,59,64,65,66,68,69,73,75,78,83,89,91,95,101,102,103,108,109,112,113,119,121,122,124,127,128,129,131,132,141,142,144,145,148,153,155,156,157,159,160,161,164,166,167,171,172,175,176,182,187,189,192,193,194,195,196,202,205,207,212,214,215,216,219,220,222,223,225,226,227,228,232,235,240,242,247,248,249,250,252,254,263,265,266,275,276,277,283,286,289,294,298,301,303,305,307,308,309,310,313,317,318,320,321,324,325,326,330,332,333,335,338,342,343,346,352,356,357,365,366,371,372,373,374,377,380,384,386,387,389,392,394,395,399,401,402,407,409,410,413,414,418,419,420,424,426,427,428,431,434,436,441,442,446,449,450,452,453,457,463,465,468,469,470,471,473,474,477,481,485,492},
{1,2,3,5,10,12,16,17,18,20,25,27,29,30,32,34,36,38,44,46,47,48,49,50,59,72,73,74,76,78,83,84,86,87,88,90,91,95,100,101,106,109,111,113,115,120,126,128,129,132,136,149,150,152,153,156,157,158,159,160,161,163,164,165,166,168,174,176,185,187,191,192,193,196,197,202,204,205,208,209,210,212,213,214,216,219,221,222,223,224,227,229,230,231,234,236,244,245,249,250,253,263,264,265,266,267,268,271,276,277,278,281,282,284,285,287,291,292,293,294,296,297,298,299,300,301,304,307,309,310,312,317,319,320,321,323,324,325,326,327,328,331,334,336,337,341,342,343,344,348,359,361,362,364,368,369,373,376,377,379,381,383,386,390,392,394,395,398,403,406,407,412,416,418,419,420,421,423,430,433,434,441,442,444,456,457,458,461,466,469,470,472,475,478,479,484,485,488,492},
{3,4,5,7,8,9,10,11,13,14,15,17,18,30,36,39,45,47,48,50,55,61,65,68,70,72,75,76,81,82,84,85,86,89,91,93,97,100,102,103,107,109,111,118,119,120,122,123,129,131,133,134,137,147,154,155,158,161,162,163,165,166,168,169,170,176,184,185,186,191,194,196,198,204,206,209,210,211,213,221,223,225,227,228,229,230,231,232,233,235,237,240,242,244,245,246,247,250,251,252,253,255,256,259,260,262,263,267,270,271,274,275,276,280,281,283,284,286,295,296,297,303,304,308,313,317,319,321,322,325,327,330,331,334,336,337,341,343,346,348,351,355,356,357,362,363,364,365,368,369,372,373,374,382,384,385,388,389,390,392,401,402,405,406,413,415,417,421,423,425,434,435,437,438,440,441,443,445,446,447,450,451,456,457,464,465,466,469,471,474,476,479,480,482,484,489,490,491,493},
{1,3,7,9,12,15,16,17,21,23,27,28,30,33,38,49,50,51,53,54,56,58,62,63,64,65,68,69,72,73,74,75,76,79,80,81,85,86,87,88,91,93,94,97,101,108,112,116,118,119,121,124,125,126,127,129,130,132,133,134,135,136,138,146,148,151,153,154,158,161,163,164,165,170,174,176,178,181,182,184,186,191,193,197,198,203,206,207,208,209,210,213,214,215,216,218,220,222,231,234,235,236,241,245,247,250,252,253,254,257,258,259,269,271,272,273,280,293,296,299,300,301,306,308,309,310,311,314,318,319,320,323,324,331,332,333,335,339,349,353,355,358,364,370,372,373,374,377,382,386,391,393,399,402,407,408,411,413,414,421,423,425,428,432,434,435,438,441,449,450,453,454,456,458,459,461,466,467,468,470,472,475,477,480,481,484,487}];
